LAMMPS (7 Aug 2019)
OMP_NUM_THREADS environment is not set. Defaulting to 1 thread. (src/comm.cpp:93)
  using 1 OpenMP thread(s) per MPI task


# ----------------- Init Section -----------------

include "system.in.init"
        units lj
        atom_style angle
        pair_style hybrid dpd 3.0 2.5 583235
        bond_style hybrid harmonic
        angle_style hybrid harmonic
        special_bonds lj 0.0 0.0 0.0


# ----------------- Atom Definition Section -----------------

read_data "system.data"
  orthogonal box = (0 0 0) to (14 14 14)
  1 by 1 by 1 MPI processor grid
  reading atoms ...
  2000 atoms
  scanning bonds ...
  1 = max bonds/atom
  scanning angles ...
  1 = max angles/atom
  reading bonds ...
  1600 bonds
  reading angles ...
  1197 angles
  2 = max # of 1-2 neighbors
  2 = max # of 1-3 neighbors
  2 = max # of 1-4 neighbors
  4 = max # of special neighbors
  special bonds CPU = 0.002506 secs
  read_data CPU = 0.041344 secs

# ----------------- Settings Section -----------------

include "system.in.settings"
        pair_coeff 1 1 dpd 3.0 1.0
        pair_coeff 2 2 dpd 3.0 1.0
        pair_coeff 3 3 dpd 3.0 1.0
        pair_coeff 4 4 dpd 3.0 1.0

pair_coeff 1 2 dpd 8.0 1.0
        pair_coeff 1 3 dpd 0.0 1.0
        pair_coeff 1 4 dpd 0.0 1.0
        pair_coeff 2 3 dpd 0.0 1.0
        pair_coeff 2 4 dpd 0.0 1.0
        pair_coeff 3 4 dpd 8.0 1.0

        bond_coeff 1 harmonic 1000 0.4

        angle_coeff 1 harmonic 20 180
        angle_coeff 2 harmonic 20 180
        angle_coeff 3 harmonic 20 180
        angle_coeff 4 harmonic 20 180
        angle_coeff 5 harmonic 20 180
        angle_coeff 6 harmonic 20 180
        angle_coeff 7 harmonic 20 180
        angle_coeff 8 harmonic 20 180


# ----------------- Run Section -----------------

include "system.in.run"
  dump dxyz all atom 1000 poly.lammpstrj

  variable TK equal 3.0
  variable PBAR equal 1.0
  variable lambda equal ramp(0.0,1.0)
  variable a0 equal 3.0*v_lambda

  comm_modify vel yes
  thermo   200
  minimize 1.0e-6 1.0e-8 10000 100000
WARNING: Using 'neigh_modify every 1 delay 0 check yes' setting during minimization (src/min.cpp:168)
Neighbor list info ...
  update every 1 steps, delay 0 steps, check yes
  max neighbors/atom: 2000, page size: 100000
  master list distance cutoff = 2.8
  ghost atom cutoff = 2.8
  binsize = 1.4, bins = 10 10 10
  1 neighbor lists, perpetual/occasional/extra = 1 0 0
  (1) pair dpd, perpetual
      attributes: half, newton on
      pair build: half/bin/newton
      stencil: half/bin/3d/newton
      bin: standard
Per MPI rank memory allocation (min/avg/max) = 7.268 | 7.268 | 7.268 Mbytes
Step Temp E_pair E_mol TotEng Press 
       0            0    11.305555     566.9113    578.21686   -378.78277 
      64            0     8.900109   0.33553102    9.2356401    10.034392 
Loop time of 1.81147 on 1 procs for 64 steps with 2000 atoms

99.2% CPU use with 1 MPI tasks x 1 OpenMP threads

Minimization stats:
  Stopping criterion = energy tolerance
  Energy initial, next-to-last, final = 
          578.21685963      9.23564298884      9.23564006924
  Force two-norm initial, final = 88177.1 3198.04
  Force max component initial, final = 3161.31 199.037
  Final line search alpha, max atom move = 2.50124e-06 0.00049784
  Iterations, force evaluations = 64 172

MPI task timing breakdown:
Section |  min time  |  avg time  |  max time  |%varavg| %total
---------------------------------------------------------------
Pair    | 1.5034     | 1.5034     | 1.5034     |   0.0 | 82.99
Bond    | 0.06122    | 0.06122    | 0.06122    |   0.0 |  3.38
Neigh   | 0.17659    | 0.17659    | 0.17659    |   0.0 |  9.75
Comm    | 0.037557   | 0.037557   | 0.037557   |   0.0 |  2.07
Output  | 0          | 0          | 0          |   0.0 |  0.00
Modify  | 0          | 0          | 0          |   0.0 |  0.00
Other   |            | 0.03271    |            |       |  1.81

Nlocal:    2000 ave 2000 max 2000 min
Histogram: 1 0 0 0 0 0 0 0 0 0
Nghost:    3432 ave 3432 max 3432 min
Histogram: 1 0 0 0 0 0 0 0 0 0
Neighs:    63060 ave 63060 max 63060 min
Histogram: 1 0 0 0 0 0 0 0 0 0

Total # of neighbors = 63060
Ave neighs/atom = 31.53
Ave special neighs/atom = 3.6
Neighbor list builds = 22
Dangerous builds = 0
  timestep 0.001
  velocity        all create 3.0 49840
  fix      fxnve  all nve
  run 20000
Per MPI rank memory allocation (min/avg/max) = 6.145 | 6.145 | 6.145 Mbytes
Step Temp E_pair E_mol TotEng Press 
      64            3     8.900109   0.33553102     13.73339    11.262238 
     200    2.3519748    8.8330698    1.9305865    14.289854    11.316488 
     400    2.6127315    8.6162917    2.2606638    14.794093    8.6919384 
     600    2.7865518    8.5505866     2.386751    15.115075    11.010934 
     800    2.8628629    8.4265956    2.5886684    15.307411    10.823802 
    1000     2.890189     8.482828    2.5694569    15.385401    11.505965 
    1200    2.8963782     8.476364     2.726331     15.54509    11.393155 
    1400    2.9655931    8.4301494     2.926806    15.803121    10.966749 
    1600    2.9446153    8.4196914    2.9556505    15.790056    10.936637 
    1800    2.9432081    8.4030026    3.0183562    15.833964    11.911425 
    2000    2.9829016    8.4136836    2.9447129    15.830512    9.8172854 
    2200    2.9765899    8.4566909    2.8686764     15.78802    10.789683 
    2400    2.9076508    8.4032518    2.9715005    15.734048    11.645188 
    2600    2.8611681    8.3942834    3.0309166    15.714806    12.248579 
    2800    2.9128728    8.4340439    2.9673425    15.768511    12.032508 
    3000     2.942419     8.394814    3.0243055    15.830541    9.7149022 
    3200    2.9724901    8.4261176    2.9584536    15.841077    12.088386 
    3400    3.0713382    8.3559769    2.9327798    15.893461    11.418593 
    3600    3.0216131    8.4813608    2.9380516    15.949566    11.284729 
    3800     3.149245    8.4148547     2.914395    16.050755    11.370813 
    4000    3.0858233    8.3850527     2.923409    15.934882    11.504728 
    4200    2.9730804    8.4339901    2.9311765    15.822557    10.012535 
    4400    2.9902795    8.4030587    2.8950792    15.781314    12.293889 
    4600    2.9394884    8.4332891    3.0218316    15.862149    12.450306 
    4800    2.9966837     8.387323    3.0102413    15.890342    11.621146 
    5000    2.9969041    8.4097437    3.0432883     15.94614    11.665179 
    5200    3.0207426     8.415218    2.9885728    15.932639    11.410013 
    5400    2.9988783    8.4012695    2.9642035    15.861541    10.620252 
    5600    3.0085948    8.4438564    3.0322408    15.986733    11.081557 
    5800    3.0794375     8.452036    2.9152979    15.984181    11.413444 
    6000    3.0039454    8.4265785    2.9546485    15.884892    10.828086 
    6200    3.0089283    8.3956051    2.9268495     15.83359    11.835453 
    6400    3.0245678    8.4369764    2.9266822    15.898242    10.769301 
    6600    2.9879289    8.3970387    3.0018208    15.878512    11.127603 
    6800    3.0348281    8.4244059    3.0432698    16.017642    10.552668 
    7000    3.0224815    8.4347732    2.9428017     15.90903    10.938092 
    7200    3.0177111    8.4063996    3.0162048    15.946908    10.744129 
    7400    2.9985077    8.4275776    3.1048203     16.02791    11.069494 
    7600    3.1246244    8.3438506    3.0196565      16.0481    10.632668 
    7800    3.0932899    8.3699187    2.9675412    15.975075    10.074856 
    8000     2.951673    8.4435104    3.0864509    15.955257    9.3672324 
    8200    3.0632735    8.3790408    3.0251923    15.996846    10.795981 
    8400    3.0315685    8.4437855    3.0417102    16.030575    9.8841521 
    8600    3.0892557    8.3984488    3.0713026    16.101318    11.379388 
    8800    3.0270201    8.4306063    3.0952302    16.064096    10.372025 
    9000    3.0033934    8.3734851    3.0445211    15.920844    11.047912 
    9200    2.9668251    8.4210681     3.063314    15.932395    12.166824 
    9400    3.0811344     8.417118    3.0050637    16.041572    10.669534 
    9600    3.0450456    8.4296968    2.9731493    15.968131    10.496083 
    9800    3.0433096    8.3446402    3.0102154    15.917538    11.743602 
   10000    2.9435721    8.3960121    3.0844672     15.89363    10.959556 
   10200    2.9585077    8.3530855    3.0132124    15.801841    10.729659 
   10400    2.9960172    8.3457813    2.9532334    15.790794    10.694856 
   10600    2.9151513    8.4192126    2.9774073    15.767161     10.47534 
   10800    3.0177197    8.4127732    2.9456665    15.882756    11.832945 
   11000    3.0799313    8.3835299    2.9713881    15.972505    11.233127 
   11200    2.9721296    8.4326083    3.0916096    15.980183    11.091378 
   11400    3.0221877    8.4036187    3.0050725    15.939706    11.421868 
   11600     3.018579    8.3897037    3.0542191    15.969527    10.869773 
   11800    2.9656748    8.3819434    3.0725488     15.90078    12.579103 
   12000     2.977433    8.3985554    3.0442926    15.906764     10.91979 
   12200    3.0189368    8.3473717    3.0782632    15.951776     10.34691 
   12400    3.0873628    8.3733615    3.0253097      16.0274    11.778243 
   12600    3.0827751    8.4641475    2.9718334    16.057832    9.7152213 
   12800    3.0766318    8.3908316     2.988544    15.992016    9.9067326 
   13000    3.0463693    8.4112427    2.9726117    15.951124    12.429055 
   13200    3.0299539    8.3620579    2.9490121    15.853728    10.192425 
   13400    2.9238196    8.4154112    3.0445051    15.843453    9.3751344 
   13600    2.9097575    8.4254216    3.0754076    15.863283    11.145606 
   13800     3.011792    8.4144162    2.9381923    15.868038    10.623899 
   14000    2.9804412    8.4376356    2.9705638    15.876626    10.363407 
   14200    2.9459358    8.3812428    2.9713185    15.769256    11.250608 
   14400    2.9266422    8.4082282    3.0802249    15.876221    9.3110468 
   14600    3.0497329     8.415183    2.9364014    15.923897    10.734409 
   14800      2.97431    8.3884271    3.0042193    15.851881    10.731563 
   15000    2.9223206    8.3651589    2.9375639    15.684012    10.606008 
   15200    3.0098275    8.3823079    2.9071999    15.801992    9.4831336 
   15400    2.9112312    8.4049863    2.9031011    15.672751    11.137422 
   15600    2.8941323    8.4273335    2.9587338    15.725095    11.583659 
   15800     3.012474    8.3897395     2.879092    15.785283    11.219349 
   16000    2.9830276    8.3966905    2.9752844    15.844279    11.122308 
   16200    3.0009431     8.386983     2.997391    15.883538    11.382197 
   16400    2.9156207     8.350225    3.0141871    15.735657     10.15383 
   16600    2.9419371    8.3660408    2.9971554    15.773895    9.4981047 
   16800    2.9893856    8.3868003    2.9861789    15.854816    9.7247882 
   17000     2.936292     8.364277    2.9631427    15.729656    12.123868 
   17200    2.9558648    8.3723999    2.9328582    15.736838    10.504019 
   17400    3.0219433     8.418724    2.8909915    15.840364    10.656136 
   17600     3.002559    8.4073697    2.9923047    15.901261    10.554751 
   17800    3.0855425    8.3575223    2.9295026    15.913025     11.50843 
   18000    3.0439193    8.3539036    3.0527762    15.970276    10.009647 
   18200    3.0318741     8.334791    2.8931607    15.773489    12.580134 
   18400    2.9636827    8.4258064    3.0200732    15.889181    10.301884 
   18600    2.9325398    8.3685894    3.0041725    15.769372    9.5274043 
   18800    3.0164431    8.4118469    2.8972624    15.831512    11.420828 
   19000    2.9890926    8.3672373     2.929804    15.778438    11.653309 
   19200    2.9668946    8.4379987    3.0124752    15.898591    10.623917 
   19400    3.0088264     8.394742    2.9050446     15.81077     10.51704 
   19600    3.0008499    8.3585542    2.9932889    15.850867    11.054562 
   19800     3.057253    8.4457751    2.9938762    16.023238    10.242212 
   20000    3.0442477    8.3813127    3.0704489     16.01585    10.994371 
   20064     3.122654    8.3411794    3.0284132    16.051232    11.456519 
Loop time of 200.3 on 1 procs for 20000 steps with 2000 atoms

Performance: 8627.050 tau/day, 99.850 timesteps/s
94.4% CPU use with 1 MPI tasks x 1 OpenMP threads

MPI task timing breakdown:
Section |  min time  |  avg time  |  max time  |%varavg| %total
---------------------------------------------------------------
Pair    | 174.51     | 174.51     | 174.51     |   0.0 | 87.12
Bond    | 6.8204     | 6.8204     | 6.8204     |   0.0 |  3.41
Neigh   | 11.97      | 11.97      | 11.97      |   0.0 |  5.98
Comm    | 4.3405     | 4.3405     | 4.3405     |   0.0 |  2.17
Output  | 0.11219    | 0.11219    | 0.11219    |   0.0 |  0.06
Modify  | 1.9081     | 1.9081     | 1.9081     |   0.0 |  0.95
Other   |            | 0.6416     |            |       |  0.32

Nlocal:    2000 ave 2000 max 2000 min
Histogram: 1 0 0 0 0 0 0 0 0 0
Nghost:    3451 ave 3451 max 3451 min
Histogram: 1 0 0 0 0 0 0 0 0 0
Neighs:    64056 ave 64056 max 64056 min
Histogram: 1 0 0 0 0 0 0 0 0 0

Total # of neighbors = 64056
Ave neighs/atom = 32.028
Ave special neighs/atom = 3.6
Neighbor list builds = 1330
Dangerous builds = 3

  reset_timestep 0

  fix ADAPT all adapt/fep 10000     pair dpd a0 1*2 3 v_a0     pair dpd a0 1*2 4 v_a0     after yes

  fix PRINT all print 10000 "adapt lambda = ${lambda} a0 = ${a0}"
  variable dlambda equal 0.02
  variable da0 equal 3.0*v_dlambda

  compute FEP all fep 3.0     pair dpd a0 1*2 3 v_da0     pair dpd a0 1*2 4 v_da0

  fix FEP all ave/time 5 2000 10000 c_FEP[1] c_FEP[2] file fep01.lmp

  run   500000
FEP settings ...
  temperature = 3.000000
  tail no
  dpd a0 1-2 3-3
  dpd a0 1-2 4-4
Per MPI rank memory allocation (min/avg/max) = 6.146 | 6.146 | 6.146 Mbytes
Step Temp E_pair E_mol TotEng Press 
       0     3.122654    8.3411794    3.0284132    16.051232     11.06766 
     200    3.0115915    8.4510032    3.0545036    16.020635    11.126297 
     400    3.0533345    8.3762027    2.9691508    15.923065    10.790921 
     600    2.9895175    8.3847966    3.0766848    15.943516    10.817983 
     800    3.0356046    8.3580401     3.100874    16.010044    10.282506 
    1000    3.0194573    8.4119125    3.1655777    16.104412     10.34201 
    1200    3.0425622    8.4137961    3.2593488    16.234706    10.156479 
    1400    3.0924306    8.4274889     3.124868    16.188683    9.6200123 
    1600    3.0458632    8.3896174    3.1032339    16.059362    10.865416 
    1800    3.0831857    8.3830099    3.0376793    16.043155    10.771823 
    2000    2.9829958    8.4395326    3.1026671    16.014456    12.188135 
    2200    3.0185794     8.381966    2.9803131    15.887884    12.785573 
    2400     2.970672    8.3862005    2.9828009    15.822781    9.8339544 
    2600    3.0179521    8.3506775    2.9554036    15.830746    12.419104 
    2800     2.918094    8.3660215    2.9537722    15.694746    10.567246 
    3000     2.955298    8.3777638     2.881664    15.690158    10.894986 
    3200    2.9354273    8.4027696    2.8685282    15.672237    10.500469 
    3400    2.9997451    8.3963221    2.9143495    15.808039    10.794725 
    3600    3.0196984    8.4616633    2.9203822    15.909328    11.644902 
    3800    2.9806022    8.3835439    3.0069358    15.859148    10.721487 
    4000    2.9794922    8.4122316    3.0501531    15.929388    10.105791 
    4200    2.9763683    8.3383164    3.0171279    15.817764    11.298087 
    4400    2.9781735    8.3660784    2.8915675    15.722672    11.915257 
    4600    2.9563317    8.4164038    2.9255674    15.774252    10.813472 
    4800    3.0421973     8.384417    2.9328356    15.878267    9.9998286 
    5000    2.9902012    8.4223013    2.9645584    15.869919    11.116753 
    5200      2.98641    8.3569064    2.9302833    15.764565    10.023664 
    5400    2.9043502    8.3420531    3.0647481    15.761148    11.259235 
    5600    2.9952309    8.3470242    2.9636235    15.801248    11.163159 
    5800    2.9944664    8.3746456    2.9166462    15.780746    10.643667 
    6000     2.969148     8.390938    2.9821447    15.824578    12.027156 
    6200    3.0628901    8.3699247    2.9978259    15.959789    10.649519 
    6400    2.9714662    8.4070998    3.0935969    15.955667     9.920127 
    6600    2.9922403    8.3971959    3.0623136    15.945626    9.7599634 
    6800     2.990581    8.3945421    2.9023946    15.780565    9.1199818 
    7000    3.0980936    8.3614799    2.9693599    15.975657    10.731566 
    7200    3.0505109    8.4218521    2.9527283    15.948059    10.088831 
    7400    3.0610654     8.413555    2.9126861    15.915543    10.332472 
    7600     2.987814    8.4460712    2.9454413    15.870993    10.292655 
    7800    3.0158606    8.4367145    2.8991738    15.857417    9.4863297 
    8000    3.0075322    8.4073452    2.9849783    15.901366    10.692694 
    8200    2.9579684    8.3812894     3.009728    15.825752    11.645739 
    8400    2.9467342    8.3883453    3.0322684    15.838505    11.806169 
    8600    3.0564434    8.4003251    2.9348919     15.91759    10.922119 
    8800    3.0045635    8.3931438    2.9444148     15.84215    10.211898 
    9000    3.0171682    8.4502321     2.910528     15.88425    11.067663 
    9200    3.0012049    8.4168898    2.9438258    15.860272    9.8009875 
    9400     2.984161    8.4720946    2.9370471    15.883145    10.268476 
    9600    3.0260344    8.4044203     2.965686    15.906888      9.62199 
    9800    3.0155475    8.4024648    2.9543833    15.877908    9.6769088 
adapt lambda = 0.02 a0 = 0.06
   10000    3.0239811    8.3778077    2.9268653    15.838377    11.310904 
   10200    2.9711284    8.3943271    3.0468696    15.895661    10.608655 
   10400    3.0105757    8.3784006     2.963496    15.855502    10.313836 
   10600    2.9907558    8.3396239    2.9985858      15.8221    12.019429 
   10800    2.9487362     8.426855    3.0389496    15.886697     11.85462 
   11000    3.0490158    8.4353713    2.9273888    15.933997    11.347465 
   11200    3.0678468    8.3835568    3.0139742       15.997     10.50263 
   11400    3.0350412    8.4745174    2.9856731    16.010476    10.746475 
   11600    3.0470264    8.4781416    2.9621135    16.008509    11.004036 
   11800    2.9933071    8.4254637    2.8883082    15.801488     9.800762 
   12000    3.0222493    8.4041596    2.9330465    15.868313    10.378059 
   12200    3.0202696    8.3760235    3.0769994    15.981162    9.5501049 
   12400    3.0887982    8.3505669    3.0043647    15.985812    10.705493 
   12600    2.9968364    8.3351391       3.0677    15.895846    10.985155 
   12800    2.9778898     8.395025    3.0704393    15.930066     11.05105 
   13000    3.0101942    8.3407726    3.0483605    15.902167    10.402015 
   13200     2.996367    8.3907447    3.0121002    15.895148    12.817174 
   13400    3.0981516    8.3457869    2.9577148    15.948405    9.6140595 
   13600    3.0054938    8.3526082    3.0700147     15.92861    11.742774 
   13800    3.0483155    8.3585978    2.9903972    15.919182    10.999379 
   14000    2.9287518    8.3326217    3.0992162    15.822769    11.526585 
   14200     2.917266    8.3852461    3.1630278    15.921985     9.333817 
   14400    3.0412451    8.4136474    2.9994406    15.972675    10.080068 
   14600    2.9493302    8.4235871    3.0472364    15.892607    11.168706 
   14800    2.9132002    8.4435436    2.9483091    15.759468    10.959244 
   15000    2.9169627    8.4640432    2.9084191    15.745719    9.0694209 
   15200    2.9289964    8.4417019    2.9658192    15.798819    10.796703 
   15400    2.9506886    8.4647705    2.9604732    15.849063     10.74507 
   15600    3.0052529    8.4128507    2.9097883    15.828264    10.304372 
   15800    2.9685624    8.4313485    2.9596832    15.841649    10.893937 
   16000    3.0417713    8.4013431    2.9813366    15.943055     12.62892 
   16200    3.0322925    8.4025072    3.0380852    15.986757    10.902154 
   16400    3.0368058    8.3626549    2.9514288    15.867015    10.956761 
   16600    2.9762433    8.3392321    3.0095285    15.810893    10.202131 
   16800    2.9486772    8.3680607     3.041072    15.829937    11.104469 
   17000    2.9271101    8.3810868    2.8609543    15.630511    11.633956 
   17200    2.9646178    8.3452346    2.9418198    15.731758    12.341711 
   17400    2.9078614     8.356848    2.9849154    15.701375     11.08793 
   17600    2.9124361    8.3564573    2.8834213    15.606348    10.381401 
   17800    2.9121121    8.3888676    2.8924793    15.647331    11.030794 
   18000    2.8596274      8.35052    3.0227051    15.660521    11.668351 
   18200    2.9366591    8.2970509    2.9994148    15.699252    11.021895 
   18400    2.8964632    8.3547932    2.9894229    15.686739    10.852181 
   18600    2.9304081    8.3384741    3.0184565    15.750345     11.07322 
   18800    3.0226036     8.357642    2.9178423    15.807123    10.240921 
   19000    2.9154798    8.4512229    2.9898518    15.812108    10.595192 
   19200    2.9891607    8.3532584    2.9746858    15.809443    9.7815386 
   19400    2.9197475    8.3859153    3.0101144    15.773461     10.71849 
   19600    2.9094487    8.3784073    2.9700129    15.710411    10.645979 
   19800    2.9632668    8.3228551    3.0224354    15.787968     11.43178 
adapt lambda = 0.04 a0 = 0.12
   20000    2.9460856    8.3724932    2.8983026    15.687715    11.091164 
   20200    2.9559175    8.3533243    2.9796396    15.764623    11.944412 
   20400    2.8866155    8.3833308    3.0091875    15.720277    11.246935 
   20600    2.9946038    8.3873304    2.9372485    15.814239    12.022797 
   20800    2.9574304     8.384045    2.9548942    15.772867    11.964618 
   21000    2.8835509    8.4448339    2.9449031    15.712901    10.761144 
   21200    2.9389357    8.3478533    2.9234052    15.677458     11.29658 
   21400    2.9590005    8.3490807    2.9653632    15.750725    11.307652 
   21600    2.9331654    8.3726668    2.9988708    15.769086    10.988639 
   21800    2.9585601     8.415243    2.9641023    15.814966    10.240508 
   22000    2.9833933    8.3643517    2.9294872    15.766691    10.326501 
   22200    2.9570688    8.3781073    2.9585247    15.770017    10.637136 
   22400    3.0570498    8.3725593     2.992601    15.948442    10.666232 
   22600      3.15384     8.353376    2.9047656    15.986536    12.000838 
   22800    2.9642819    8.4614568    2.9920228    15.897679    9.9115674 
   23000    3.0306639    8.4186778    2.9123362    15.874737    10.982289 
   23200    3.0246812    8.4180794    2.8940336    15.846866    9.7978161 
   23400    3.0190372    8.3703915    2.8723048    15.768988    11.134507 
   23600    3.0583759     8.367188     2.937791    15.890249    10.248872 
   23800    3.0469702     8.468819    2.8673228    15.904312     11.51144 
   24000    3.0320079    8.4404786    3.0342542    16.020471    11.456295 
   24200    3.0352493    8.4360801     3.080379    16.067057     9.883442 
   24400    3.1211656    8.3623885    2.9852838     16.02708     10.76638 
   24600    3.0278597     8.422946    3.0489647    16.011429    11.328217 
   24800    3.0245857     8.414317    3.0223354    15.971263    10.666135 
   25000    2.9840052    8.3820803    3.0434476    15.899298    11.399383 
   25200    2.9534565     8.368936    3.1614318    15.958337    10.643298 
   25400    3.0390052    8.3080531    3.1268724    15.991154    10.831938 
   25600    2.9779131    8.3512512    3.0846523     15.90054    11.101763 
   25800    3.0326011    8.3452111    3.0434967    15.935335    10.754748 
   26000    2.9881124    8.4117527    2.9660361    15.857716    10.937739 
   26200    3.0250385    8.3905825    2.9943346    15.920206    10.596175 
   26400    2.9988414    8.4044895    2.9384337    15.838936    10.374463 
   26600    2.9995011    8.3350763    2.9514908    15.783569    10.273303 
   26800    3.0304648    8.4075025    3.0517344    16.002661    10.474425 
   27000     3.106964    8.3672293    3.0264589    16.051804    10.903602 
   27200    3.0917591    8.3802856    3.0450334    16.060639    9.2731557 
   27400    3.0413378    8.4203354    3.0845393      16.0646    10.268954 
   27600    3.1193684    8.4012765    3.1138501     16.19184    11.565181 
   27800    3.0392625    8.3568849    3.1447652    16.058264    12.268838 
   28000     3.030093    8.4245659     3.067844    16.035277    11.432303 
   28200    3.1823339    8.3530812    3.0780823    16.202278    9.4679859 
   28400    3.0498083    8.3648492    3.1239444    16.061219    10.395719 
   28600    3.0553936    8.3532475    3.0895744    16.023621     11.60073 
   28800    3.0557867     8.375404    3.1081074      16.0649     10.70112 
   29000    3.0825785    8.3394478    3.1254264     16.08643    10.627505 
   29200    3.0461794     8.350689    3.1151581    16.032832    11.719222 
   29400    3.0418807    8.4136263    2.9469717    15.921138    10.630735 
   29600    2.9367005    8.3675485     3.033996    15.804393     11.34108 
   29800    3.0232562    8.3594304    3.0197006    15.911748    10.738216 
adapt lambda = 0.06 a0 = 0.18
   30000    2.9655317     8.392312    3.1515839    15.989969    10.198001 
   30200    3.0512087      8.38763    3.0015716    15.963726    11.057387 
   30400    3.0953269    8.3913435    2.9771208    16.009133    9.2715635 
   30600    3.0733686    8.3727094    3.0147132    15.995171    10.937146 
   30800    2.9679972    8.3899534    3.1417182    15.981441    10.016129 
   31000    3.0492574    8.3704315    3.0561138    15.998145    11.515443 
   31200    3.0365942    8.3851298    3.0361508    15.973894    11.635299 
   31400    2.9992777    8.3955884     3.057167    15.949423     12.67428 
   31600     3.046085    8.4000597    3.0491254    16.016028    10.521013 
   31800    3.0505666    8.3932213    3.0411059    16.007889    10.710763 
   32000    2.9777938      8.38583    3.1064202    15.956708    11.753733 
   32200     2.951862    8.3693219    3.0917908    15.886692    9.1499919 
   32400    2.9611041    8.3916472    3.0033055    15.834388    11.082273 
   32600     2.919267     8.371564    3.0575965    15.805872    10.957986 
   32800    2.9535414    8.4082827    3.0219417    15.858321    10.591341 
   33000    2.9863169    8.4290813    3.0386315    15.944948    10.140568 
   33200     2.971517    8.5016703     3.057633     16.01435     10.15809 
   33400    2.9832955    8.5228179    2.8933366     15.88886    12.845727 
   33600    3.0063981    8.4414836     3.007076    15.955902    10.507233 
   33800    2.9532585    8.4262475    3.0534048    15.907325    10.756785 
   34000     3.024565    8.4266255    2.9924774    15.953682    10.488067 
   34200    3.0026084    8.4186578    3.0205665    15.940885    10.783247 
   34400    2.9499763    8.4048237    2.9451894    15.772765    11.838544 
   34600    2.9970705    8.4229433    2.9698945    15.886196    10.837061 
   34800    2.9608005    8.4368097     3.009656    15.885446    11.100259 
   35000    3.0931633    8.3987007    2.9594614    15.995587    10.541721 
   35200    3.0382433    8.4106187    2.9861597    15.951865    10.546045 
   35400    2.9624117    8.4090631    2.9314813     15.78194    9.5526759 
   35600    2.9126131    8.4315628    2.9283935    15.726692    10.797689 
   35800     2.957396    8.3780311    2.9499177    15.761825     10.96371 
   36000    2.8998639    8.4043768    3.0070644    15.759062    12.362543 
   36200    2.9926345     8.381877    3.0184896    15.887074    11.531926 
   36400    2.8991647    8.3676279     2.984785    15.698986     11.03828 
   36600    2.9628211    8.3439587     2.988042     15.77401    12.048118 
   36800    2.9754448    8.3955944    2.9424148    15.798945    11.136766 
   37000    2.9297588    8.4812293    3.0341166    15.907787    10.377638 
   37200    3.0203843    8.4234304    2.9833581      15.9351    11.431198 
   37400    3.0306886    8.3953367    3.0518639    15.990961    10.031225 
   37600     3.060688    8.4221506    3.0459676    16.056855    10.427639 
   37800    3.0556812    8.3983258    2.9982472    15.977803    11.758911 
   38000     2.987675    8.3524712    3.0086278    15.840371    10.375855 
   38200    3.0540945    8.3428245    3.0168146     15.93849    11.327919 
   38400    3.0129665    8.3488352    2.9206602    15.786685    11.433435 
   38600    2.9632787    8.3921706    3.0019332    15.836799    8.9708213 
   38800     2.919396    8.4101297    2.9767288    15.763763    12.233814 
   39000    2.9455887    8.4078354     2.932819    15.756828    10.519433 
   39200    2.9470056    8.4320189    2.9326737    15.782991    12.308476 
   39400    3.0032471    8.4409464    2.9369782    15.880543    10.391716 
   39600    3.0099627    8.3968928    2.9228032    15.832383    11.361559 
   39800    3.0395022    8.3413782    2.8808213    15.779173    10.168497 
adapt lambda = 0.08 a0 = 0.24
   40000    2.9597498    8.3689716    2.8844288    15.690805    10.394419 
   40200     2.988292    8.3792148    2.8054075    15.664819    11.939711 
   40400     2.951927    8.3955758    2.8659062    15.687159    11.613709 
   40600    2.9682923    8.3630436    2.9294254    15.742681    11.436587 
   40800    2.9928759    8.3676955    3.0157267    15.870491     10.15833 
   41000    2.9964361    8.4156194     2.990574      15.8986    10.120985 
   41200    3.0103745    8.3972286    2.9474443    15.857977    11.312153 
   41400    3.0231792    8.4063095    2.9698153    15.908626    11.354008 
   41600    3.0442411    8.3721933    3.0206258    15.956898    11.744367 
   41800    3.0147019    8.3696793    2.9881981    15.877669    11.199208 
   42000    2.9814464    8.4076655    3.1025104    15.980109    10.612652 
   42200    2.9947361    8.3977818    2.9633162    15.850956    10.532394 
   42400    2.9699858    8.3742231    3.0851707    15.912145     11.46038 
   42600    3.0071734    8.3976614    2.9581076    15.864274    11.548419 
   42800    2.9478987    8.4014923    2.9317879    15.752917    11.961945 
   43000    2.9144726     8.432633    2.9504732    15.752629    12.109151 
   43200    3.0052081    8.3973246    2.9418025    15.844685    10.687854 
   43400    2.9645455    8.4056186    2.9372302    15.787444    11.382279 
   43600    2.9289836    8.4149962    2.8207059    15.626981    9.9714212 
   43800     2.948326    8.3846739    2.8873518    15.692303    11.359531 
   44000    2.9085438    8.3733183    2.9179378     15.65189    11.497405 
   44200    2.9062959    8.3486161    3.0127544    15.718635    10.919151 
   44400    2.9696996    8.3566834    2.9441453    15.753151    10.742895 
   44600    2.9537826    8.3881745    3.0519152    15.868548     11.10847 
   44800     2.994697    8.4265319    3.0142271    15.930558    10.602968 
   45000     3.013306    8.3895989    3.0433616    15.950659    10.788953 
   45200    2.9891723    8.3603426    2.9658643    15.807723    11.755711 
   45400     2.953479    8.4616824    3.0698497    15.959536    10.205226 
   45600    3.0521483    8.3573155    3.0148719    15.948121    10.902624 
   45800     3.019863    8.3901829    3.0098042    15.927517    11.402415 
   46000    3.0122131    8.4038948    3.0122998    15.932255    12.367985 
   46200    3.0708888    8.3894159    2.9095047    15.902951    9.7815034 
   46400    2.9432881    8.4319645    2.8973855    15.742075    11.348218 
   46600    2.9350841    8.4399861    2.8820674    15.722478    9.8818919 
   46800    2.9309367     8.424729    2.9114753    15.730411    10.680677 
   47000    2.8822413    8.3606075     3.030973    15.712781    10.518936 
   47200    3.0089508    8.4356176    2.8737059    15.820493    10.570626 
   47400    3.0195149    8.3792332    2.9522016    15.858442    10.137335 
   47600    3.0760408    8.3994603    3.0494245    16.060639     10.89439 
   47800    3.0900583    8.4216179    3.0943194    16.148707    10.771416 
   48000    3.1801264    8.3698201    3.0428998    16.180524    9.7826768 
   48200    3.0931813    8.4009784    3.1123476    16.150778    10.010242 
   48400    3.1012102    8.4173249    3.0399895    16.106804    11.063308 
   48600    3.0704185    8.4012273    3.0167755    16.021328    10.393997 
   48800    3.0343426    8.3805128    3.0408931    15.970644    10.652115 
   49000    2.9911197    8.3739351    3.0349699    15.893341    9.8686839 
   49200    3.0705523    8.3874358    3.0729816    16.063943    11.605709 
   49400    3.0231816    8.4119233    2.9818392    15.926268    10.664249 
   49600    2.9496035    8.4096479    3.0615389     15.89338    10.963798 
   49800    2.9966314    8.4093092    3.0003702    15.902379    10.422688 
adapt lambda = 0.1 a0 = 0.3
   50000    3.1077767     8.398607    2.8830667    15.941008    12.562525 
   50200    3.0600448    8.4271306    2.9925425    16.007445    10.682368 
   50400    3.0241708    8.4418156    2.9472235    15.923027    11.963382 
   50600    3.0248697    8.4449079    2.9356124    15.915556    10.768412 
   50800    2.9989209    8.4331393    2.8796436    15.808915    11.019656 
   51000    2.9755568    8.4101849    3.0126133    15.883902    10.421418 
   51200    3.0495392    8.4475688    2.9000488    15.919639    10.805144 
   51400    2.8594543    8.4154558    3.1159204    15.818413    11.003019 
   51600    2.9514704    8.3708697    2.9821273    15.777989    10.756953 
   51800    2.9444436    8.3962765    2.9592225    15.769956    10.156742 
   52000      2.96013    8.4194437    2.9394987    15.796917    11.203863 
   52200    2.9921523    8.4229624     2.982362    15.891309    9.9779631 
   52400    3.0365737    8.4402031    2.9674414    15.960228    9.6752901 
   52600    2.9641286    8.3699746    3.0939471    15.907892    10.435181 
   52800    3.0482889    8.3234224    3.0236125    15.917182    9.5732765 
   53000      2.89455    8.3929399    3.0375658     15.77016    10.195011 
   53200    2.9569808    8.3628161    3.0229599    15.819029    11.513835 
   53400    2.9836501    8.3389107    3.0569324    15.869081    10.825709 
   53600     2.989225    8.3844423     3.130144    15.996182    10.590604 
   53800    2.9316416    8.4646728    3.0412257    15.901162    9.9236775 
   54000    2.9946744    8.4488029    3.0848608    16.023429    11.670187 
   54200    2.8925316    8.4562171    3.0596433    15.852488    11.901343 
   54400    2.9777388    8.3937916    3.0135857    15.871752    10.500706 
   54600    3.0513079    8.3763518    2.9950105    15.946036    11.339749 
   54800     2.985909    8.4006467    3.1124042    15.989675    11.635348 
   55000    2.9440222    8.3997419    3.1167499    15.930317     11.14778 
   55200    3.0911876    8.4411662    3.0376849    16.113314    10.791734 
   55400    2.9741098    8.4139334    3.0781822     15.95105    11.049252 
   55600     2.939019    8.3828344    3.0024739    15.791633    10.988004 
   55800    3.0016741    8.3603049    3.0643517    15.924916    10.549346 
   56000    2.9994157     8.385199    3.0859873     15.96806    10.791893 
   56200    3.0513226    8.3855496    3.1096125    16.069858    10.705642 
   56400    2.9967352    8.4245392     3.100816    16.018211    10.609512 
   56600    3.0362521    8.4728023    3.0782117    16.103115    11.523497 
   56800    3.0516587    8.3997646    2.9985296    15.973494    12.529738 
   57000    3.0122818    8.3751122    3.0392023    15.930478     11.41226 
   57200    3.0347758    8.3949277    2.9803444     15.92516    10.072972 
   57400    2.9261086    8.4609125    2.9563813    15.804262     11.25983 
   57600    2.9277414    8.3763894    2.9868675    15.752673    9.4602706 
   57800    2.9286502    8.3546922    3.0833719    15.828843    10.597221 
   58000    3.0224172    8.3291592    3.0236263    15.884144    10.345522 
   58200    2.9316348    8.3994838    3.1006264    15.895364    10.542888 
   58400    2.9918036    8.3926909    3.0619757    15.940128    10.038634 
   58600    3.0449732    8.4146482     2.955908    15.935732     10.81551 
   58800    3.0528752    8.4442548    2.9982354    16.019513    10.379475 
   59000    3.1130367    8.4337932    2.9888455    16.089859    9.6297107 
   59200     3.051943    8.4070694    3.0260559    16.008751    13.350997 
   59400    3.0235527    8.3887547    2.9521893    15.874005    10.902487 
   59600    2.9405302    8.4065754    2.9771276    15.792293    12.172249 
   59800    2.9621303    8.3471885    2.9048361    15.692998    10.292728 
adapt lambda = 0.12 a0 = 0.36
   60000    2.9016729    8.3579997    3.0075209    15.715854     10.74628 
   60200    2.8684016    8.4126109    3.0032193    15.716281    12.033459 
   60400    2.9135656     8.433267    3.0286902     15.83012    11.246979 
   60600    2.9195504     8.380711    3.0757959    15.833643    9.2428507 
   60800    2.8437192    8.4110006      3.00674    15.681187    11.846167 
   61000    2.9187602    8.3747244    2.8738574    15.624533    11.968562 
   61200    2.8996102    8.3618311    2.8979258    15.606997    11.467777 
   61400    2.9544989     8.358687    2.9236089    15.711828    12.424904 
   61600    2.9112891    8.3430534    2.9423197    15.650123    10.228509 
   61800    2.9636206    8.3678549    3.0133055    15.824368    9.8682405 
   62000    2.9715747    8.3698097    3.0052805    15.830224    9.9882185 
   62200    3.0244831    8.4174659     2.961969    15.913891    12.914677 
   62400     3.015799    8.3581503    2.9345385    15.814126    10.677194 
   62600    3.0154878    8.3495268    3.0281405    15.898637    11.165344 
   62800    3.0341906    8.3787067    3.0263099    15.954027    11.658341 
   63000    3.0515406    8.3889922    3.0464126    16.010427    10.759665 
   63200     2.994082    8.3878265    2.9846681    15.861372    10.575168 
   63400    2.9807199    8.3915184    2.9308397    15.791202    11.757969 
   63600    2.9756939    8.4006085     2.924274    15.786192    11.079651 
   63800    2.9349395    8.3960733    2.9512928    15.747574    9.7938828 
   64000    2.9495194    8.4022213    2.9363405    15.760629    11.142618 
   64200    2.9121548    8.3775943    2.8912271    15.634869    10.578134 
   64400    2.8716422    8.4202567    2.9048481    15.630414    9.2229826 
   64600    2.8801953    8.3743314    2.9765203    15.668985    10.384092 
   64800    2.8845883    8.3751467    2.9376473    15.637513    11.428668 
   65000     2.984725    8.4155629    2.8913869    15.781799     11.40384 
   65200    2.8947922    8.3758207    2.9403913    15.656229    10.245797 
   65400    2.9275009    8.3766419    2.9222889    15.687987    10.589225 
   65600    2.9332993    8.3700864    3.0312395    15.799075    12.278099 
   65800    2.9294053    8.4095779    3.0464581    15.847947    11.039114 
   66000    2.9651449     8.418812     3.060394    15.924699    11.591087 
   66200    2.9977914    8.3501438    2.9870414    15.831624     11.90043 
   66400    3.0351766    8.3505736    2.9791536    15.880216    10.701831 
   66600    2.9884431      8.39158    3.0022697    15.874273    11.010108 
   66800    3.0189624    8.3223554    2.9277341    15.776269     10.11358 
   67000    2.9327156    8.4131667    2.9586495     15.76869    10.686887 
   67200    3.0223003    8.3958325    3.0425495    15.969566    9.8335916 
   67400    3.0870237      8.41262    2.9739076    16.014748    10.055938 
   67600    2.9456539    8.4230618    3.0881767     15.92751    12.198644 
   67800    3.0127106    8.4351505    3.0304014    15.982358    11.009933 
   68000    3.0585432    8.4044722      2.92699    15.916983    10.803494 
   68200    3.0330523    8.4063585    3.1193826    16.073045    9.6541037 
   68400    3.0268346    8.3800601    3.0037142    15.921756    13.219018 
   68600    2.9596373    8.4084997    3.0729354    15.918671    10.278845 
   68800    2.9192227    8.4750878    3.0712563    15.922989    10.703259 
   69000    3.0044996    8.4359477    2.9334831    15.873927    10.566362 
   69200     3.000445    8.4185944    3.0583619    15.975373     10.32328 
   69400    2.9728786     8.362807    3.0149427    15.834838    9.9938926 
   69600    2.9585475    8.3949395    2.9176583      15.7482    10.795671 
   69800    3.0231735    8.3916871    2.9259084    15.850088    9.8720883 
adapt lambda = 0.14 a0 = 0.42
   70000    2.9646422    8.3781411    3.0009577    15.823839    10.443925 
   70200    2.9866672    8.3885569    2.9307514    15.797069    11.357601 
   70400    3.0309283    8.4096205    2.9038722    15.857612    10.944414 
   70600    3.0503996      8.40483    3.0107998    15.988941    10.513171 
   70800    3.0247606    8.4240696    2.9859876     15.94493    9.6978495 
   71000     3.009654    8.4163219    3.0132496    15.941795    10.121785 
   71200    2.9389024    8.3935108    3.0648921    15.864552    10.899814 
   71400    3.0012927    8.3954252    2.9284387    15.823552    11.098278 
   71600    2.8666898    8.4005787    2.8905552    15.589019    11.297019 
   71800    2.9960064     8.353645    2.8503764    15.695784     11.38241 
   72000    2.9383217    8.4024651    2.8124309    15.620175    11.839831 
   72200    2.9333506    8.3920269     2.878194    15.668047    10.354988 
   72400    2.9310312    8.4265547    2.9169834    15.737887    11.331328 
   72600    2.9272222    8.4422509    3.0518209     15.88271     11.59974 
   72800    3.0152651    8.3505856      2.88806    15.759282    11.409356 
   73000      2.97478    8.3936663    2.9209652    15.774571    10.601442 
   73200    2.9652681    8.4069005    3.0387037    15.891282    10.887083 
   73400    2.9760539    8.3722504     2.993108    15.827207    12.222481 
   73600    2.9908496    8.3715727    2.9385457     15.79415    11.057022 
   73800    3.0341641    8.3334669    2.9773144    15.859752    10.673054 
   74000    2.9432586    8.4357005    2.9977295    15.846111    10.851407 
   74200    2.9461647    8.3998479    2.9609611    15.777846    11.321914 
   74400    2.9149862    8.4125796    3.0048758    15.787749    11.232135 
   74600    2.9732609    8.4051767    2.9774525    15.840291    11.142932 
   74800    2.9928135    8.3975128    2.9375148    15.822003    10.757698 
   75000    2.9795472     8.414788    2.9039741    15.785848    11.587031 
   75200    2.9223926    8.4581276    3.0192707    15.858795    10.619983 
   75400    2.9564936    8.4848442    2.9713208    15.888688    10.742812 
   75600    3.0340219     8.410516    2.9084591    15.867732    10.356996 
   75800    2.9786462    8.4466651     2.992672    15.905072     10.54974 
   76000    2.9921529    8.4491841    3.0079306      15.9431    11.112184 
   76200    2.9724428    8.4414191    2.9379506    15.835805    10.013772 
   76400     2.964109    8.4138572    2.9735494    15.831347    11.395548 
   76600    2.9034023    8.4394813     3.026912    15.819319    10.491731 
   76800    3.0255374    8.3981265    2.8677828    15.801946    10.108605 
   77000      2.96157    8.3993926    2.9467367    15.786263    10.002814 
   77200    2.9210791    8.4612883    2.9814498    15.822166    8.8233493 
   77400    2.9946335    8.4250699    2.8121582    15.726932     9.845994 
   77600    2.9188909    8.4241877    2.9520037    15.752339    9.2212587 
   77800     2.983643    8.3807534    2.9258107    15.779791    11.381202 
   78000    2.8683242    8.3894886    2.9961079    15.685932    9.9901212 
   78200    2.9525303    8.3692999     3.025036    15.820917    10.638236 
   78400    2.9701602    8.3458459    2.9854172    15.784276    10.944969 
   78600    2.9576239     8.355211    2.9916261    15.781055    10.509382 
   78800    2.9978225    8.3794861    3.0165681     15.89054    9.6245097 
   79000    2.9256321    8.3917744    2.9995178    15.777546    12.653831 
   79200    2.9362957    8.3656922    2.9913351    15.759269    11.541185 
   79400    3.0101746    8.3283608    3.0057516    15.847117    11.227039 
   79600    3.0177937    8.3730362    2.9495526    15.847016    11.039256 
   79800    2.9822095    8.3911812    2.9607285    15.822987    10.968663 
adapt lambda = 0.16 a0 = 0.48
   80000    2.9223323    8.3841966    3.0679439    15.833447    10.879527 
   80200    2.9850637     8.395198    2.9555137    15.826068    10.108603 
   80400    2.9376287     8.407366    2.9786392    15.790245    10.712371 
   80600    2.9875329    8.4180003    3.0238603    15.920919    11.188058 
   80800     2.959786    8.4547927    3.0141567    15.906409    9.9431696 
   81000    2.9741246    8.4434024    3.1319789    16.034338    10.926983 
   81200    3.0360554    8.3701604    2.9584934     15.88046    11.331144 
   81400    3.0413123    8.3696325    2.9274315    15.856751    10.075531 
   81600    2.9778915    8.4108888    2.9775711    15.853064    10.357006 
   81800    2.9219666    8.4108596    2.9293457    15.720964    10.534982 
   82000    3.0325507    8.3642148    2.8937913    15.804558    10.687547 
   82200    2.9386579     8.335382    3.0034877    15.744653    10.803627 
   82400    2.9499108    8.3589122    3.0490803    15.830646    12.101706 
   82600    2.9276571    8.3586853    3.0250555    15.773031    11.901636 
   82800    2.9675186    8.3727702    2.9012911    15.723114    11.559271 
   83000    2.9603173    8.3419754    2.8985067    15.678738     11.35501 
   83200    2.9125055    8.2952948      2.96385    15.625719    10.104229 
   83400    2.9871603    8.4225277     2.981945    15.882973    11.746251 
   83600    2.9952882    8.3977099    3.0401541     15.92855     10.79067 
   83800     2.991327    8.3853457    2.9765098    15.846602    10.990208 
   84000    2.9019232      8.39619     2.926063    15.672961    10.787882 
   84200    2.9421866    8.4218313    2.8283094    15.661214    11.568794 
   84400    2.9564653    8.4257375    2.9849173    15.843135    11.618976 
   84600     2.984798    8.4368849    2.9746362    15.886479    9.8601625 
   84800    3.0302281    8.4099885    2.9581877    15.911246    11.537679 
   85000    3.0314115    8.4424522    3.0208748    16.008171    10.763344 
   85200    3.1173615    8.4443375    2.8843502    16.002392    11.802542 
   85400    2.9768377    8.4342099    3.0462631    15.943497    8.6227388 
   85600     3.032811    8.4228589    2.9646755    15.934476    11.216704 
   85800    3.0285225    8.3805339    2.9615946    15.882641    10.144021 
   86000    3.0126198    8.3467039    2.9036173    15.766992    11.295844 
   86200    2.9532806    8.4013098    2.9171896    15.746205    9.6451846 
   86400    2.9937032    8.3667975    2.9344115    15.789519    13.751551 
   86600    2.9659255    8.4168732     3.036333     15.89987    9.6516304 
   86800    3.0192679    8.3865641    2.9640642    15.877266    10.823933 
   87000    3.0547768     8.425282    2.9796456    15.984802    12.549099 
   87200    3.0625929    8.4133633    2.9743781    15.979334    9.6406883 
   87400    3.0680226    8.3733313    2.9360979    15.909162    10.366144 
   87600     3.024354    8.4209432    2.9173747    15.872581    11.423344 
   87800    3.0167986    8.3940818    2.9994051    15.916422    9.5789278 
   88000    2.9626187    8.3812934    3.0538132    15.876813    10.601274 
   88200    2.9258731    8.3554557    3.1359638    15.878035    10.491139 
   88400    2.9814567    8.3893121    2.9053838    15.764645    10.190668 
   88600    2.9654159    8.3538403    3.0453407    15.845081     11.38028 
   88800     3.032495    8.3676037    3.0429976    15.957069    10.481695 
   89000    2.9846076     8.407451    2.9821347    15.864259    10.077846 
   89200    2.8912604    8.3674591    3.0917358    15.793917    10.453425 
   89400     3.000911     8.361061    2.9878744    15.848051    11.238615 
   89600    2.9595096    8.4288619    2.9719946    15.837901    10.713871 
   89800    3.0406691    8.3465183    2.8739007    15.779142    11.035609 
adapt lambda = 0.18 a0 = 0.54
   90000    2.9400356    8.3447622    2.8997935    15.652404    10.470753 
   90200      2.98027    8.3831973     2.890443     15.74181    10.650651 
   90400    2.9629591     8.408923    2.9101562    15.761296    10.361379 
   90600    3.0036744    8.3705561    2.8776597    15.751475    11.361899 
   90800     2.855349    8.3982354    2.9901708    15.669288    10.261079 
   91000    2.9601108    8.4100608    2.8816707    15.729678    10.388464 
   91200    2.9812158    8.3763546    2.9646796    15.810622    10.010684 
   91400    2.9304097    8.4213229    2.9211706     15.73591    11.520033 
   91600    3.0173213    8.3984722    2.8892152    15.811406    9.9734436 
   91800    2.9846044    8.4225514    2.9091095    15.806329    10.064799 
   92000    2.9442157    8.3942051    3.0444619    15.852782    10.014082 
   92200    3.0315423    8.3761175    2.9850616    15.906219    9.9923125 
   92400    3.0333978    8.3696588    2.9784472    15.895928    10.963299 
   92600    2.9495165      8.41053    3.0684883    15.901081    12.094498 
   92800    3.0419138    8.4175593    3.0442316     16.02238    11.251218 
   93000    3.0689202    8.4051703    2.9835449    15.989794    10.171003 
   93200    3.0897168    8.3657684    2.9549421    15.952968    10.000604 
   93400     3.067119    8.3826254    3.0821013    16.063105    10.958113 
   93600    3.0955265    8.3483175    3.0050552    15.994341    11.712254 
   93800    2.9945519    8.4387704     3.099653    16.028005    11.079235 
   94000    3.0679666    8.3523799    3.0225555    15.974584    11.207509 
   94200    3.0038534    8.3476433    3.0405981    15.891769     11.10627 
   94400    2.9677125     8.412969    3.0081209    15.870433    11.183506 
   94600    3.0574837    8.3898399    3.0163434    15.990116    11.389677 
   94800    3.0096916    8.4062904    3.0597688    15.978339    10.331072 
   95000    3.0110259    8.3769674    3.0732161    15.964464    11.417499 
   95200    3.0507296    8.3636003    2.9849811    15.922388    11.348411 
   95400    2.9758593    8.4069371    2.9860079    15.854502    11.829716 
   95600    2.9813037    8.4533296    3.0155487    15.938598    10.038746 
   95800    2.9797356    8.3778186    3.0742236    15.919411    11.626715 
   96000    3.0095929    8.3817638    3.0136015    15.907497    10.285669 
   96200    3.0157494    8.4202087    2.9967408    15.938312    10.682123 
   96400    2.9486202     8.401196    3.0824584    15.904373    9.6345555 
   96600    3.0986254    8.4058436    3.0173366    16.068794    11.165994 
   96800    2.9777167      8.45028    3.0923558    16.006978    11.820189 
   97000    3.0243838    8.3891469    3.0837302    16.007185    9.0579286 
   97200    3.0547463    8.3764565    2.9818298    15.938115    9.8101982 
   97400    2.9927625    8.4020065    3.0562535    15.945159     11.76937 
   97600    3.0186146     8.393375    3.0335103    15.952543    11.471876 
   97800    3.0073291    8.3513582    3.0010977    15.861194    12.170181 
   98000    2.8918986    8.3538231    3.0397937    15.729296    10.394661 
   98200    2.9130335    8.4138656    3.0244752    15.805706    9.9980154 
   98400     2.948785    8.4278723    2.9615001    15.810338    11.665965 
   98600     2.984428    8.3249144     3.172516    15.971834    10.564428 
   98800    3.0143427    8.3847522    3.1298386    16.033844    10.723133 
   99000    3.0739647    8.4137744    3.0867636     16.10918    11.710834 
   99200    3.0511721    8.4530354    2.9951081    16.022613    10.187989 
   99400    3.0144025    8.4226848    3.0193865    15.961414    11.494108 
   99600    2.9762869    8.4536466    3.0006322    15.916477    10.613868 
   99800    3.0715811    8.3584391    2.9185594    15.882066    11.171217 
adapt lambda = 0.2 a0 = 0.6
  100000    3.0204322    8.4502376    2.9346839    15.913304    12.684723 
  100200     3.015637    8.4016762    2.9876896     15.91056    10.974598 
  100400    3.0312248    8.4839615    2.8889897    15.917515    10.516512 
  100600    3.0309641    8.4104376    2.9536687    15.908279    8.8184287 
  100800    3.1306023    8.3635487    3.0224568    16.079561    10.961092 
  101000    3.0876552    8.4569453    3.0488744    16.134987    10.945132 
  101200    3.0587552    8.4129748    3.0495558    16.048369    10.897854 
  101400     3.057519     8.408996    2.9692416    15.962223    10.781569 
  101600    2.9377255    8.4399749    3.0418152    15.886175     10.83189 
  101800    2.9130304    8.4143655    2.8545939     15.63632    10.335848 
  102000    3.0641726    8.3791196    2.8596732    15.832754    12.805521 
  102200    2.9599789    8.3991628    2.9583118    15.795223    10.097265 
  102400    2.9354675    8.3804208    3.0039485    15.785369    11.340914 
  102600    2.9796821      8.33858    2.8597356    15.665604    12.336855 
  102800    2.9381098    8.3465061    2.9829426     15.73441    10.527654 
  103000    3.0185426    8.3369204    2.8441691     15.70664    12.038303 
  103200    3.0078068    8.3853342    2.8201596    15.714948    10.746868 
  103400    2.9963442    8.4225065    2.8569779    15.771753    10.562207 
  103600    3.0124444    8.4035904    2.9247599    15.844758    10.799509 
  103800    2.9994944    8.3501944    2.9316146    15.778801     11.81464 
  104000    2.9852439    8.4043291    3.1191359    15.999092    10.591179 
  104200    3.0729995     8.397389    3.0053865     16.00997    11.199548 
  104400    2.9274395    8.4192483    3.0674437    15.875656    11.184516 
  104600    2.9547471    8.4081517    2.9320166    15.770073    11.832509 
  104800    2.9549809    8.3793396    3.1466071    15.956202     11.93765 
  105000    2.9822565     8.371531    3.1536752    15.996354    10.997465 
  105200    3.0201475    8.3972829    3.0178197    15.943059    10.535582 
  105400    3.0431148    8.3789214    3.0401341    15.981445    10.617254 
  105600    3.0322242    8.4085781    3.0900359    16.044676     9.704191 
  105800    3.0513474    8.3634245    2.9716583    15.909816    11.604657 
  106000     2.927539    8.3282419    2.9804635    15.697818    10.629214 
  106200    2.8759768    8.4104891    3.0247543    15.747052    11.246778 
  106400    3.0046899    8.4128715    3.0755917    15.993245    10.558532 
  106600    2.9587685    8.3727625    3.1150923    15.923788     12.36044 
  106800    2.9855019    8.3644248    3.0572814     15.89772    11.536348 
  107000    3.0264772    8.3602307    2.9046968    15.802374    10.709434 
  107200    2.9382826    8.3809795    2.9321011    15.718301    11.069445 
  107400    2.9211084     8.381442    3.0535149    15.814429    10.149319 
  107600    2.9387318    8.4250295    2.9562958    15.787219    10.609104 
  107800    2.9950491    8.4382832    2.9369313    15.865542    11.735047 
  108000     3.032944    8.3664311    2.9487468    15.862319    10.038755 
  108200    3.0337223    8.4235854    2.8854432    15.857337    11.421805 
  108400    2.9813927     8.374403    3.0419508    15.886207     10.14973 
  108600     2.945066     8.432764    2.9651532    15.813307    10.875046 
  108800    2.9621074    8.4507878    2.9470006    15.838728    10.607084 
  109000    2.9863996    8.4125846    2.8490618    15.739006    10.997084 
  109200    2.9679418    8.4629866    2.9512869     15.86396    12.163519 
  109400    2.9633645    8.4240531    2.9559544    15.822832    10.196505 
  109600    2.9941344    8.3862852    3.0670593      15.9423    10.450494 
  109800    3.0356321    8.3394955    2.9835712    15.874238    11.505999 
adapt lambda = 0.22 a0 = 0.66
  110000    2.9739615    8.4213842    2.9640877    15.844184    10.939645 
  110200    3.0318232     8.378478    2.9717054    15.895644    11.038761 
  110400    2.9792273    8.4425276    2.9717081    15.880842    11.229798 
  110600     2.911885    8.4327988    3.0463102    15.844753    11.077866 
  110800    2.9887283    8.4697023      2.97214    15.922693    10.841658 
  111000    2.9627299    8.4756539    2.9479934     15.86552     11.29503 
  111200    3.0123167    8.4334861    2.8938774    15.843579    11.145975 
  111400    3.0183679    8.4439677     2.858438    15.827694    11.202177 
  111600    2.9965787    8.4292967    2.9084104    15.830328    11.159018 
  111800     2.987219    8.4217791    2.8859387    15.786306    11.598707 
  112000    2.9942122    8.4262917    2.9302336    15.845598    10.866657 
  112200    2.9278341    8.3992977    3.1115846    15.900438    10.987691 
  112400    3.0727711    8.3825446    2.9903086    15.979705    11.418601 
  112600    3.0335585    8.4355954    3.1162969    16.099955    9.7116907 
  112800    3.0960692     8.383064    3.1400137    16.164859    9.5828481 
  113000    3.1392276    8.4307504    3.0458388    16.183076    11.806746 
  113200     3.130644    8.4487246      3.12955    16.271893    9.8750809 
  113400    3.1109788    8.5123592    3.0259653    16.202459    10.802095 
  113600    3.1744053    8.4521543    2.9126272    16.124009    13.248949 
  113800    2.9553955    8.4874361    3.0458159    15.964129    10.500838 
  114000    2.9759825    8.4530267    3.0018196    15.916588    10.241139 
  114200    2.9965282     8.433817    3.1007604    16.027122    10.997942 
  114400    3.0444379    8.4422827    3.0952717    16.101928    10.779649 
  114600    3.0252253     8.368137      3.16731    16.071016    11.355786 
  114800    2.9333526    8.3666056    3.1619218    15.926356     10.85798 
  115000    3.0476857    8.4036938    3.0436338     16.01657    11.012212 
  115200    2.9291654    8.4080611    3.0449189    15.844531    10.409058 
  115400    3.0231163    8.3735748    2.9901351    15.896117    9.4088967 
  115600    2.9416017    8.4529503    2.9481253    15.811272    10.963561 
  115800    3.0090744    8.4433949    2.9272255    15.881975    10.742579 
  116000    3.0376806    8.3897047    3.0113746    15.955322    11.285055 
  116200    3.1004278      8.38886    2.9912936     16.02847     10.69271 
  116400    3.0064676    8.3990369    3.0248573    15.931341    11.200619 
  116600    3.0020046    8.4277252    3.0380283    15.966509    10.991212 
  116800    2.9471072    8.4024163    2.9919246    15.812791    10.902531 
  117000    3.0303863    8.3896861      2.93684    15.869833    10.504865 
  117200    3.0544269    8.4229833    2.9366472     15.93898    10.727876 
  117400      3.05648    8.4337801    3.0663238    16.082532    10.738404 
  117600    3.0382556    8.4337901    3.0310728    16.019968    10.661206 
  117800    2.9666305    8.4361342    3.1273124    16.011167    10.659217 
  118000    2.9977018    8.4002834    3.1379217    16.032509    10.458217 
  118200    3.0088823    8.3798738    3.1822338    16.073174    10.702458 
  118400    3.0133798    8.3748068    3.0945482    15.987165     11.57684 
  118600     3.067189     8.427973    3.0160008    16.042457    11.332721 
  118800    3.0514006    8.4463832    2.9563201    15.977516    11.223446 
  119000    2.9767318    8.4273784    2.9432525    15.833496    10.947816 
  119200     2.948375    8.3910977    2.9740364    15.785485     11.24317 
  119400    2.8549359    8.3955095    3.0182893    15.694061    10.171327 
  119600     3.011779    8.3973973    2.9758683    15.888675    12.442384 
  119800    3.0431328    8.4096732    2.8950315    15.867122    10.664374 
adapt lambda = 0.24 a0 = 0.72
  120000    3.0402233    8.3792842    2.9753868    15.912726    10.519107 
  120200    3.0688996    8.3828661    2.8566786    15.840592    9.1421701 
  120400    2.9807154    8.4023569    2.9952953     15.86649    10.350087 
  120600    2.9901888    8.3656353      3.10184    15.950516    11.023111 
  120800    3.0126735    8.3862992    3.0175262    15.920576    12.053921 
  121000    3.0810311    8.3760019    2.9751915    15.970429    10.940783 
  121200    3.0437668    8.4482176    3.0279165    16.039501    12.213731 
  121400    3.0157418    8.4321774    3.0026825    15.956211    10.352449 
  121600    2.9901396     8.390442    3.0044163    15.877825    9.8929206 
  121800    2.9471826    8.4353878    3.0404852    15.894436    11.420172 
  122000    3.0316594     8.399594    2.9652001    15.910009    11.086217 
  122200     3.008643    8.4288677    2.8848743     15.82445    11.417612 
  122400    3.0671894     8.381445    2.9267255    15.906654    10.737264 
  122600    2.9313283    8.4222374    2.9662295    15.783261    10.214036 
  122800     2.901962    8.3933827     2.895823    15.639972    10.386822 
  123000    2.8424744    8.3742778    3.0470184    15.682876    10.071227 
  123200     2.922846      8.37778     2.957622    15.717479    12.853065 
  123400    2.9519865    8.3933476    2.9742092    15.793323    12.279028 
  123600    2.9673256    8.4117055    2.9383321    15.798801     11.54023 
  123800    3.0236774    8.4269482    3.0429644    16.003161    9.8147775 
  124000    3.0342681    8.3665696    2.9941997    15.909896    11.656239 
  124200    2.9939285     8.411547    2.9821894    15.882384    12.019301 
  124400    2.9414064    8.3620568    2.9904904    15.762451    11.485852 
  124600    3.0386201    8.3353483    3.0244597    15.915459    9.8653737 
  124800    3.0229912    8.3765734    2.9910877    15.899881    10.273961 
  125000     2.972712     8.427869    3.0277805    15.912488     12.57155 
  125200    2.9196715    8.4549476    2.9314469    15.763712    12.124366 
  125400    3.0224585    8.4051443    2.9649037    15.901469    11.277933 
  125600    3.0482697    8.3558966    2.9094525    15.835467    11.567608 
  125800    2.9895383     8.396035    2.9850537    15.863154    11.232982 
  126000    3.0215529    8.4361396    2.9314882    15.897691     9.990189 
  126200    2.9550604    8.4062982    2.9859685    15.822641    10.834787 
  126400    2.9728548    8.3975847    3.1089681    15.963605     9.670982 
  126600    2.9847529    8.3776758     2.935858    15.788425    10.367451 
  126800    2.9177874    8.4210671    2.9800928    15.775653    10.850264 
  127000     2.964098     8.350749    2.9573772     15.75205    10.002513 
  127200    3.0087089    8.4366934    2.9159092    15.863409    10.246949 
  127400    2.9659027    8.4515027    3.0165438    15.914676    10.531965 
  127600    3.0113338    8.4095477    2.9691924    15.893482    13.117972 
  127800    3.0486344    8.3924596    2.9458837    15.909008    11.790821 
  128000    2.9342183    8.4526968    2.9687688    15.820592    11.147025 
  128200    2.9540367     8.385525    2.8182812    15.632646    10.467934 
  128400     2.956401    8.3727707    2.9821339    15.787289    11.701573 
  128600    2.9530268    8.4043755    2.9810934    15.812794    10.435658 
  128800    2.9376672    8.4098458    3.0480407    15.862184    10.409692 
  129000    2.9763455    8.4247652    3.0082552    15.895306     10.87686 
  129200    3.0244206    8.3701255    2.9841016     15.88859    9.9745005 
  129400    2.9653125    8.3906288    3.1125844    15.948958    9.9305797 
  129600    3.0066947    8.4008469    3.0818093    15.990443    11.656742 
  129800    2.9716529     8.389122    2.9874537    15.831826     11.10897 
adapt lambda = 0.26 a0 = 0.78
  130000    2.9896243    8.4059194    2.9357033    15.823817    13.070154 
  130200    2.9764225    8.3944925    2.8967105    15.753604    10.727393 
  130400     2.950556    8.3891691    2.9352569    15.748047    11.362126 
  130600    2.9535937    8.3935372    2.8843299    15.706042    10.125332 
  130800    3.0061336     8.414059    2.8558072    15.776812    10.249703 
  131000    3.0725532    8.3586353    2.8430636    15.808224    11.104206 
  131200    3.0104624    8.3995939    2.9871847    15.900214    11.343403 
  131400    2.9856845      8.36532    3.0094773    15.851085    10.848818 
  131600    2.9637707    8.3834589    2.9812855    15.808178    10.217939 
  131800    2.9123689    8.3917597     2.952804    15.710933     11.21313 
  132000    2.9266343    8.3704017    2.8989977    15.657156    10.603778 
  132200     2.828789    8.4106275    2.9372521    15.588942    10.991755 
  132400    2.9346624     8.372366    2.9922104    15.764369    11.333439 
  132600    2.9201211    8.4343272    2.9468838    15.759202     11.68495 
  132800    3.0345574    8.3896665    3.0194025    15.958629    11.252267 
  133000    3.0338832    8.3774369     3.047107    15.973093    11.439778 
  133200    3.0507007    8.3967161    3.0410591    16.011538    10.028242 
  133400    2.9821387    8.4041345    3.0290948    15.904201    10.717274 
  133600    3.0045491    8.3955592    2.9894405     15.88957     12.45885 
  133800    3.0490433    8.3975194    2.8318673    15.800665    11.861533 
  134000    2.9630023    8.3985936    2.9865435    15.827418     10.71236 
  134200    2.9658629    8.4056294    2.8950666    15.747266    10.912172 
  134400    2.9716103    8.4214547    2.9493723    15.826014     11.02022 
  134600    3.0267303    8.4321966    2.9955921    15.965614    9.5841715 
  134800    3.1148116    8.4064937    2.9759116    16.052287    11.455588 
  135000    3.0391155    8.4037352     3.052965    16.013094    9.3643814 
  135200    3.0751718    8.3903839    3.0413058    16.042141     11.06509 
  135400    3.0909237    8.4293486    3.1000461    16.163462    11.148646 
  135600    3.1293992    8.3459177    3.0201076    16.057777    11.316505 
  135800    3.1209201     8.425045    3.0567756     16.16086    10.411484 
  136000    3.0650821    8.3937288     3.012805    16.001858    10.083858 
  136200    3.0267498    8.3629721    2.9927585    15.893585    13.004362 
  136400    3.0227554    8.4161901     2.858901    15.806957    10.270661 
  136600    2.8955235    8.4227675    2.9601837    15.724065    11.722171 
  136800    2.9287619     8.389419    2.9209858    15.701351    10.158441 
  137000    3.0136925    8.3638342     2.959528    15.841641     10.93748 
  137200    2.9426476     8.339849    3.0036982    15.755312    10.377012 
  137400    2.9014984    8.3586696    2.9377032    15.646444    9.9439011 
  137600    2.9580578    8.3062506     2.984249    15.725368     11.08086 
  137800    2.9839531    8.4080715    2.9342391    15.816002    9.5047675 
  138000    3.0117563    8.3819262    2.9600225    15.857324    10.491433 
  138200    2.9674276    8.3651581    2.9614888    15.775563    10.083265 
  138400    2.9380462    8.3749715    2.9731048    15.752942    9.8827128 
  138600    2.9441269    8.4349924    2.9639697    15.812944    11.954784 
  138800    2.9222751    8.3240976    3.0398505    15.745169     11.92277 
  139000     3.051139    8.3879314    2.9157305    15.878082    10.249236 
  139200    2.9532569    8.3922839    2.9462945    15.766249    11.203703 
  139400    3.0204741    8.3331752    2.9484629    15.810084    10.013888 
  139600    3.0284761    8.4005632    2.9990353    15.940041     11.15214 
  139800    3.0361881    8.3744125    3.0190405    15.945458    11.910012 
adapt lambda = 0.28 a0 = 0.84
  140000    3.0338648    8.3723115    3.0749515    15.995785    10.832191 
  140200    3.0190629     8.402282    2.9929189    15.921531    12.309689 
  140400    3.0126621    8.3814692    2.9597825    15.857985     11.42407 
  140600    3.0692064    8.4162784    3.0402642     16.05805    11.261871 
  140800     3.002796    8.4443408    3.1025274     16.04881    11.357755 
  141000    3.1099345    8.4070995    2.9422855    16.011954    9.7549607 
  141200    2.9380469    8.3729747    3.0894645    15.867306    10.780888 
  141400    3.0880152    8.3661628    2.8946646    15.890534    10.941029 
  141600    2.9505031    8.4372842    2.9399158    15.800742    10.042235 
  141800     2.939499    8.4117236    3.0051363    15.823904    11.764788 
  142000    2.9828701    8.3977123    2.9012333    15.771014    11.157461 
  142200    2.9471576    8.3866757    2.9323917    15.737593    10.398308 
  142400    2.9710194    8.4620695    2.9059819    15.822352    11.086568 
  142600    2.9202558    8.4191682    3.0047485     15.80211    10.790447 
  142800    2.9727639    8.3854701     2.998979    15.841365    10.164862 
  143000    2.9687134    8.3396036    3.1116895    15.902137    10.514507 
  143200    2.8823774     8.420102    3.0210061    15.762512    10.455655 
  143400    2.9219465    8.3739347    2.9704147    15.725078    11.863779 
  143600    3.0144208    8.3722618    2.9120374     15.80367     12.66172 
  143800    2.9490583    8.3603089     2.973792    15.755477    11.492516 
  144000    2.8875501    8.3914794    3.0019429    15.722582    10.183189 
  144200    2.9377671    8.4068276    2.9816257    15.792901    11.632828 
  144400    2.9207177    8.3817301    2.9197413    15.680357    11.626452 
  144600     2.892852    8.3473784    2.9377379    15.622225    11.787626 
  144800    2.8961904    8.3746569     2.961359    15.678129      10.2958 
  145000    2.8911684    8.3845715    2.9128905    15.632046     10.34559 
  145200    2.9572243    8.3809162    2.9323798    15.746915    11.275084 
  145400    2.9553079    8.3720884    2.9857797    15.788614    10.916076 
  145600    2.9719943     8.356559    3.0848718    15.897193     12.41672 
  145800    3.0510486    8.3238255    2.9843262    15.882436    9.0975279 
  146000    3.0290999    8.4258948    2.9452136    15.912486    10.487069 
  146200    2.9697303    8.4035866    3.0862179    15.942173    13.102789 
  146400    2.9106919    8.4098007    3.0435459    15.817201     11.58281 
  146600    2.9030468    8.4489259     3.033963    15.835282    11.850459 
  146800    2.9748208    8.4619181    2.9619063    15.883824    11.037494 
  147000    2.9816672    8.4302026    2.9948987    15.895366    10.327661 
  147200    3.0310883    8.3570207    2.8788586    15.780238      10.8892 
  147400     2.967099    8.3752609    2.9658051    15.789489     12.09341 
  147600    3.0452121    8.3865034    2.9397509    15.891788    12.105282 
  147800    2.9645331    8.3929136    2.9750987    15.812589    11.703227 
  148000    3.0230466    8.4223957    2.8913646    15.846063    11.509552 
  148200    3.0784342    8.3653952    2.9971927     15.97793    11.625131 
  148400    3.0597206    8.3968819    2.9726704    15.956838    9.7466477 
  148600    3.0101286    8.4326395    2.9682912    15.913866    10.570408 
  148800    3.0080138    8.3873965    2.9356873    15.832849    10.537049 
  149000    3.0174435    8.4061173    2.9878212    15.917841    11.133006 
  149200    2.9907055    8.3581712    3.0367975    15.878784    11.328999 
  149400    2.9291926    8.3198479    3.1611548    15.872595    9.3545912 
  149600    2.9712864    8.3459195    3.0473252    15.847946    10.854179 
  149800    2.9315205    8.4189018    3.0918175    15.905801    9.6118794 
adapt lambda = 0.3 a0 = 0.9
  150000    2.9897742    8.4111519     3.082831    15.976402    11.405987 
  150200    3.0332005    8.3932935    3.0644476    16.005267    10.256051 
  150400    3.0504771    8.4216973    2.9550764    15.950201    12.336392 
  150600    3.0023514    8.3804592    3.0261406    15.907875    11.081859 
  150800    2.9507389    8.3866307    3.0365889    15.847115     11.25114 
  151000    3.0352723    8.3382363    2.9661613     15.85503    11.836298 
  151200     2.963816    8.3926482    3.0280103     15.86416    11.636021 
  151400    2.9817566    8.3537639    2.9460796    15.770242    12.725573 
  151600    2.9325047    8.4093281    2.9255581    15.731444    10.377359 
  151800    2.9399344     8.383713     2.923048    15.714458     10.54256 
  152000    2.9080064    8.3528703    2.9219511     15.63465    10.664276 
  152200    2.9216754    8.3216584    3.0536719    15.755652    10.416491 
  152400    2.9577415    8.3579876    3.0169747    15.809356    11.319097 
  152600    2.9777161    8.3596512    2.9271739    15.751166    10.894744 
  152800    3.0651323    8.3233993    2.9044324    15.823231    10.939415 
  153000    3.0541548    8.3397988     2.960557    15.879297    11.416003 
  153200    2.9414416    8.3422059     2.997211    15.749373    11.370772 
  153400    3.0246449    8.3685915    2.9791079    15.882398    9.9151897 
  153600     3.001203    8.3974301    2.9979585    15.894942    10.418339 
  153800    3.0436866    8.4117487    3.0147325    15.989728    11.127565 
  154000    3.0012902    8.3630149    3.0664833    15.929182    10.335661 
  154200     3.012278     8.391172    3.0436008    15.950931    11.590047 
  154400    2.9610049    8.3627011    3.0432102    15.845198    11.738433 
  154600    2.9646645    8.4244799    2.9119382    15.781191    11.415747 
  154800    2.9595282    8.3863789    2.9616656    15.785117    9.5924366 
  155000     2.985765    8.4374364    2.9531737    15.867018     10.12779 
  155200    3.0018693    8.4030532    2.9984795    15.902085    10.442443 
  155400    2.9693615    8.4172082    2.9252886    15.794312    11.226805 
  155600    2.9173991    8.4271033    2.9767228    15.777737    12.088685 
  155800    2.9694788    8.3718896    3.0469406    15.870821    10.048519 
  156000    3.0369421    8.4014961    3.0439323    15.998564    9.8378815 
  156200    2.9994017    8.4813514    3.0412359     16.01944    11.099745 
  156400    2.9696284    8.4448651    3.0596094     15.95669    10.613396 
  156600    3.0308825    8.4714975    2.9937189    16.009267    11.781215 
  156800    3.0068159    8.4270954    2.9867693    15.921834    9.9161226 
  157000    3.0903384    8.4348312    2.9837215    16.051742    11.168601 
  157200    3.0659376    8.4330648    2.9381553    15.967827     10.28088 
  157400    3.0143966     8.454572    2.9672592    15.941165     10.81123 
  157600    3.0545243    8.4252761    2.9468294    15.951601    10.131688 
  157800    3.0142033    8.4592234    2.9303839    15.908652    10.324095 
  158000    3.0310735    8.4505274    2.9251195    15.919984    11.072168 
  158200    2.9691999    8.4378434    3.0238255    15.913242    11.659926 
  158400    2.9719992    8.4425943    3.0177926    15.916157    10.378261 
  158600    2.9797498    8.4137839    3.0475834    15.928757    12.141399 
  158800    3.0230141    8.4275257    2.9185761    15.878356    10.645729 
  159000    3.0456622    8.4394975    3.0137859    16.019493     10.84976 
  159200    3.0566477    8.4449008    2.9514613    15.979041    11.339527 
  159400    3.0020705    8.4065761    3.0004904    15.907921    11.335825 
  159600    3.0608034    8.4235575     2.979589    15.992056    11.075547 
  159800    2.9843397    8.3926244    3.0232624    15.890158    9.2925368 
adapt lambda = 0.32 a0 = 0.96
  160000    3.0059853    8.4007063    2.9100168    15.817447    11.051592 
  160200    2.9588572     8.427982    2.9474368    15.811485    11.306727 
  160400    2.9907412    8.3918229    2.9721841    15.847876    11.511536 
  160600    2.9256141    8.4146731    3.0152691    15.816169    11.716342 
  160800    2.9364206    8.4359563    3.0494231    15.887808      11.6117 
  161000     2.995301    8.3843017    3.0503806    15.925387    12.358599 
  161200     3.013001    8.4018133    2.9684202    15.887475    11.649304 
  161400    2.9743492    8.3907646    3.0127809    15.862839    9.6803083 
  161600    2.9937868     8.398213     3.061385    15.948033    10.830377 
  161800    2.9851418    8.3802087    3.1141028    15.969785    11.060734 
  162000    3.0777818    8.3638925    3.0136875    15.991944    11.502647 
  162200    3.0476663     8.395125    3.0025706    15.966909    10.893079 
  162400    3.0108524    8.4121187     2.924075    15.850214    11.024128 
  162600    3.0276679    8.4503821     2.898535    15.888148    10.426334 
  162800    2.9681663    8.4335407    2.9080278    15.791592    10.163836 
  163000    2.9083513    8.4971882    2.9530545    15.810588    9.9237754 
  163200    2.9629442    8.4154835    2.9384326     15.79611    11.607769 
  163400     3.012356     8.468259    3.0289227    16.013457    9.5609025 
  163600    2.9748967    8.4183184    3.0191927    15.897625    10.742164 
  163800    2.9918083    8.4489012    2.9752869    15.909657    10.186488 
  164000    2.9777422    8.4378124    2.9722856    15.874478    11.165115 
  164200    2.9851167    8.4502006    2.9877008    15.913338    10.987698 
  164400    3.0061319    8.4166919    3.0051779    15.928813    10.910945 
  164600    2.9367822    8.3920377    3.0031021     15.79811     10.48644 
  164800      2.93136    8.3979621       3.0874    15.880204    11.287775 
  165000    2.9726552    8.3491402    3.0536033    15.859497    9.9366128 
  165200    2.8317198    8.4554345    3.0676341    15.768524    9.6470606 
  165400    2.9142743    8.4565023    2.9189208    15.744649    11.548181 
  165600    2.9887895     8.381895    2.9582398    15.821077    9.4176291 
  165800    3.0466531    8.4130794    2.8973807    15.878155    9.9819751 
  166000    3.0345113    8.3885485    2.9413517    15.879391    10.966674 
  166200    3.0028652    8.4152943    2.9119659    15.829306    12.880172 
  166400    2.9630142    8.2987011    3.0235801     15.76458    11.190075 
  166600    3.0499039    8.3849468    3.0597178    16.017233    11.021486 
  166800    2.9706975    8.3592955    3.0928224    15.905936    11.419987 
  167000    2.9722357    8.3572609    2.9973258    15.810711    11.841749 
  167200    2.9390825    8.3408695    3.1098176    15.857106    11.318678 
  167400     3.028361    8.3954952    3.0277694    15.963535    11.511735 
  167600    2.9966308    8.4331312    2.9999434    15.925773    10.752961 
  167800    3.0235404    8.3846408    3.0360253    15.953709    10.269079 
  168000    2.9784048    8.3997183    2.9974497    15.862541    10.565139 
  168200    2.9908054    8.3927742    2.9219098    15.798649    10.352692 
  168400    2.9521649    8.4271243    2.9645955    15.817753    10.343439 
  168600    3.0731794    8.3603381    2.8537978      15.8216     12.12827 
  168800    3.0160399    8.3924093     2.984831    15.899038    9.8122153 
  169000    3.0097364    8.3973442    2.9817283     15.89142    9.6081384 
  169200    2.9870224    8.4189271    3.0429448    15.940165     10.82613 
  169400    3.0314374    8.4346559    3.0409699    16.020508    11.564365 
  169600     3.048958    8.4120578    2.9580848    15.941293    11.175884 
  169800    3.0950612    8.3644614    2.9975192    16.002251     9.949106 
adapt lambda = 0.34 a0 = 1.02
  170000    3.0986876    8.4184045     2.997149    16.061261    10.954978 
  170200    3.0361373     8.418382    2.9801413    15.950452    11.388169 
  170400    3.0265478    8.4004422    3.0793669    16.017361    11.848183 
  170600    3.0876277    8.3898687    3.1924385    16.211433    12.313983 
  170800    3.0609219    8.3642474    3.0743355     16.02767    11.801975 
  171000    3.0074364    8.4434223    3.0087077    15.961029     10.43033 
  171200    3.0008324      8.38288    3.0801919     15.96207    10.391208 
  171400    2.9922385    8.4185199    2.9412771    15.845911    11.590688 
  171600    3.0258657    8.3882318    2.9856653    15.910426    12.148399 
  171800    2.9756987    8.3756994    2.9613522    15.798368    10.209311 
  172000    3.0115591    8.4124269    2.9154957    15.843003    9.5480289 
  172200    3.0439672    8.3979083    2.9380676    15.899644    10.015192 
  172400    3.0335619    8.3816703     2.953705    15.883443    11.178897 
  172600    2.9681185    8.3885855    3.0083426     15.84688    10.041667 
  172800    2.9090824    8.4312685    3.0158061    15.808516    11.108827 
  173000    2.8869141    8.4197131    2.9715851    15.719504    11.636816 
  173200    2.8733593    8.3892772    3.0445634    15.741725    10.233002 
  173400    2.9203391    8.3728851    2.9688078    15.720011    9.8822539 
  173600     2.921474    8.3625887    2.9623684    15.704977    11.381621 
  173800    2.9615676    8.3806687    2.9717746    15.792573    9.2211487 
  174000    3.0218074    8.4242239    2.8800061    15.834675    12.086467 
  174200    3.0067283    8.4212235    3.0453009    15.974362    9.3024321 
  174400    2.9809002    8.4554325    3.0003954    15.924943    10.260654 
  174600    3.0282181    8.4174987    2.9009158     15.85847    11.310479 
  174800     2.943555    8.3795017    2.9040977    15.696724    11.180934 
  175000    2.9315625    8.3941257    3.0079227    15.797193    11.369723 
  175200    2.9527018    8.3970287    2.9087531     15.73262    9.8480042 
  175400    2.9665706    8.3558493     3.038675    15.842155    11.016741 
  175600    2.9790089    8.4216422     2.992442    15.880363    10.793753 
  175800    2.9027047    8.4155702    3.0535064    15.820957    10.434405 
  176000    2.9615699    8.3745246    2.9814832    15.796141    11.445783 
  176200     2.965157    8.3707101    3.0113182     15.82754    11.508092 
  176400    2.9471369    8.3929121    3.0555267    15.866934    11.290396 
  176600    2.9575813    8.3881013    3.0728599    15.895115    11.847954 
  176800    2.9727024    8.3712982    3.1186831    15.946805    11.529275 
  177000     3.005658    8.3667559    3.0636834    15.936672    10.365436 
  177200    2.8676043    8.4150536    3.0734335    15.787743    11.768497 
  177400    2.9481265    8.3687133     2.997017    15.785709    11.074647 
  177600     2.966453    8.4444995    2.9804234    15.872377    10.652403 
  177800    3.0351118    8.4046075    2.8228571    15.777856    10.889795 
  178000    3.0173469    8.3821173    2.8782791    15.784154    9.5564816 
  178200    2.8545216    8.4025039     2.975042    15.657187    12.702034 
  178400    2.9837593    8.3884269    2.9591276    15.820956    10.247267 
  178600     2.911531    8.3856017     3.066784    15.817499    11.829342 
  178800    3.0816955    8.3692059    2.9589276    15.948365    11.092026 
  179000    2.9916443     8.462467    2.9778031    15.925493    10.729931 
  179200    3.0100959    8.4129107    3.0144627     15.94026    10.991751 
  179400    2.9887083    8.4272509    3.0048199    15.912892    10.719773 
  179600    2.9923004    8.4429468    2.9982422    15.927395    11.291792 
  179800    3.0548237    8.3798222    3.0028943    15.962661    11.436632 
adapt lambda = 0.36 a0 = 1.08
  180000    2.9973576    8.3475672    3.1049798    15.946335    11.323081 
  180200    2.9769047    8.4108039    3.0360175    15.909946    11.073662 
  180400    2.9880355    8.3519666    3.0236408     15.85542    11.573455 
  180600    2.9971996     8.410958    3.0059051    15.910415    10.739094 
  180800    3.0215019    8.3770693    3.0464358    15.953492    11.781859 
  181000    3.0319325     8.378979     2.958899    15.883503    11.804206 
  181200    3.0483366    8.4400912    3.0841046    16.094415    12.383248 
  181400    3.0582843     8.438657    2.9724293    15.996219    11.218152 
  181600    3.0834092    8.4739771    3.0393126    16.136091    10.791814 
  181800     3.057889    8.4151209    3.0379609    16.037622    11.154539 
  182000    2.9927581    8.3893875    3.0287175    15.904998     10.32618 
  182200    3.0715198    8.3742124    3.0000526    15.979241    10.162152 
  182400     3.052532    8.4092406    2.9148717    15.900621    11.156895 
  182600    2.9718818    8.4162337    3.0099569    15.881784     11.41167 
  182800    3.0185096    8.4891417    2.9006652    15.915307    9.4371461 
  183000    3.1005882    8.5224237    2.8783485    16.049329    10.982015 
  183200    2.9692378    8.4527397    2.9242888    15.828658    10.673052 
  183400    2.9573167    8.4727759    2.9901988    15.896732    12.905922 
  183600     2.927741    8.5053288    2.9865893    15.881334    10.608809 
  183800    3.0385949    8.3851234    2.9453779    15.886115    12.394434 
  184000     2.967367    8.4245554    2.9712616    15.844642    9.7364909 
  184200    2.9393116    8.3641228    3.0583951    15.829281    10.510977 
  184400    2.9400066    8.4194779    2.9652691    15.792552    11.031661 
  184600    2.9403327    8.4165631    2.9322516    15.757109    10.704508 
  184800    2.9227055    8.3837305    2.8164562    15.582053    11.358983 
  185000     2.902373    8.3636456    3.0830946    15.798123    11.040802 
  185200    2.9722974    8.3642489    2.9828537    15.803319    10.984199 
  185400    2.9250426     8.378974    3.0874829    15.851827    10.291885 
  185600    3.0190816    8.3369334    3.0000581    15.863349    10.243418 
  185800    2.9772698    8.4013119    2.9913217    15.856305    8.8478203 
  186000    3.0550331    8.3549866    2.9155199    15.850765    12.224135 
  186200    2.9240498    8.3775819    2.9490891    15.710553    11.674006 
  186400    2.9014377    8.3572744    3.0673511    15.774606    10.254526 
  186600    2.9438708    8.3928739    2.9275696    15.734042    10.616782 
  186800     2.970638    8.3735597    2.9991592    15.826448    10.039141 
  187000    2.8837581    8.3830909     3.072954    15.779519    12.100163 
  187200    2.9042513    8.4809292    2.9793376    15.814466    10.222037 
  187400    2.9745551    8.4336216    3.0301185    15.923342    11.277218 
  187600    2.9372923    8.4238752    3.0076738    15.835284    10.579831 
  187800    3.0128334    8.4239711    2.9523112    15.893273    10.578831 
  188000     3.037177    8.4116867    3.0320731    15.997247    11.242833 
  188200    3.0506209    8.4508298    3.0461427    16.070616     10.59572 
  188400    3.0144144    8.4305857    3.0544765    16.004423    11.250943 
  188600    2.9787075    8.3606953    3.1061958    15.932718    11.160453 
  188800    2.9706588    8.4360724    2.9551002    15.844933    11.650748 
  189000    2.9881309    8.3505017    3.0357181    15.866175    11.532349 
  189200    2.9433564    8.4279126    2.9295955    15.770335     11.59753 
  189400    2.9883088    8.3596509    2.9379088    15.777782    10.845771 
  189600    2.9486906    8.3660301    3.0290619    15.815916    10.900566 
  189800    2.9808805    8.3912118    3.0918522    15.952149    11.220026 
adapt lambda = 0.38 a0 = 1.14
  190000    3.0431484    8.3926195    3.0050256    15.960085    9.0738233 
  190200    3.0296949    8.3992067    3.0747011    16.016178    9.9205979 
  190400    3.0560339    8.4412782     3.025126    16.048163    11.034467 
  190600    3.0604584    8.4496831    3.1200174    16.158093    10.101734 
  190800    3.0717951    8.3910594    3.0634197    16.059868    10.748912 
  191000    3.1152507    8.4326719    3.0034613    16.106673     11.57472 
  191200    3.1262328    8.4464786    3.0421474    16.175631     11.52455 
  191400    3.0575911    8.4769779    3.0166895    16.077761    10.523651 
  191600    3.1150011    8.3927764    3.0128593    16.075801    11.309203 
  191800    3.0694508    8.3561915     3.015711    15.973777    11.102596 
  192000     2.992589    8.3904721    2.9361332    15.813244    10.965872 
  192200     2.991525    8.4752401    2.9202371    15.880521    10.070103 
  192400     2.997459    8.4249795    2.9757446    15.894664     10.80729 
  192600    3.0287458    8.4247988    2.9099775    15.875623    9.6680998 
  192800     2.989112    8.4336673    2.9024157    15.817509    12.042799 
  193000    3.0989024    8.4243725    2.8503822    15.920784    10.342784 
  193200    3.0095921    8.4676844    2.8758125    15.855628    11.426793 
  193400    2.9612925    8.4313921    2.9518604     15.82297    10.197274 
  193600    2.9884585    8.3771319    2.9300215      15.7876    10.255817 
  193800    2.9721164    8.4145843    3.0035449    15.874075    11.803243 
  194000    2.9601641    8.4088892    2.9883793    15.835294    10.995309 
  194200    3.0647548    8.3950516    2.8738435    15.863729    11.556524 
  194400      2.96747    8.4054744    3.0017728    15.856227    11.406459 
  194600    2.9869767    8.3566439    3.0750758    15.909944    10.265798 
  194800      2.96868    8.3676313    3.0753847    15.893809    11.695653 
  195000    3.0636748     8.397371    3.0503247     16.04091    10.546722 
  195200    3.0810598    8.4141669    3.0192691    16.052715    10.262155 
  195400    2.9931137    8.4706181    3.1307369    16.088781     9.794418 
  195600    3.0071158    8.4021355    3.0709329    15.981487    10.540337 
  195800     2.987656    8.4540077    3.0308895     15.96414    9.8812073 
  196000    2.9868618    8.4135382    3.0083108    15.899902    10.771856 
  196200    2.9384222    8.4341198    3.0281978    15.867747    10.066283 
  196400    3.0108068    8.4403531    2.9239283    15.878234    9.8991057 
  196600    2.9675312    8.4355063     3.047647    15.932224    11.327586 
  196800    2.9893533    8.4389131    3.0638912    15.984592    11.128697 
  197000    2.9907758    8.4163731    2.9855164     15.88581    10.209786 
  197200    3.0213321     8.475158    3.0308249    16.035715    10.135741 
  197400    3.1155388     8.386795    3.0268967    16.084663    11.749302 
  197600    3.0395799    8.4388536    3.0127117    16.008655    9.4050905 
  197800    3.0589316    8.3926385    2.9932319    15.971974    10.297138 
  198000    3.0504603    8.3797356    3.0399572    15.993095    9.4724877 
  198200    3.0465096    8.4215853     3.101596    16.090661     10.55839 
  198400    3.0708392    8.4170682    3.0269591    16.047983    10.016323 
  198600    2.9937911    8.4699527    3.1180895    16.076484    10.466839 
  198800    3.0000746    8.4445695    3.1310572    16.073489    10.867453 
  199000    3.0781034    8.3991136    3.1661403      16.1801    12.348471 
  199200    3.0683468    8.3821612     3.059287    16.041667    11.549584 
  199400    2.9989074    8.4002768    3.0185249    15.914914    11.054029 
  199600    2.9997547    8.4263928    3.0509591    15.974734    9.9436162 
  199800    3.0073349    8.3725201    3.0160157    15.897283    9.6074293 
adapt lambda = 0.4 a0 = 1.2
  200000    3.0260242    8.4187925    2.9324819    15.888041    11.216081 
  200200    3.0498837    8.3931405    2.9747875    15.940466    12.535619 
  200400     3.029284    8.4589052    2.9676469    15.968206    11.111577 
  200600    2.9465551    8.4738843    3.0876414    15.979148     11.70951 
  200800    3.0368801    8.3795763    3.0037835    15.936402    11.274911 
  201000    2.9052589    8.4405463      3.09497    15.891226    11.101782 
  201200    2.9980137     8.379875    2.9734431     15.84809     11.41315 
  201400    2.9946426    8.4092489    2.9716319    15.870599    10.263954 
  201600    2.9622452    8.4226954    3.0142981     15.87814    10.847191 
  201800    2.9799294     8.395734    2.9779315    15.841325     10.31826 
  202000    3.0957427    8.3867399    2.9664433    15.994475    10.430721 
  202200    3.0159553    8.4179369    3.0445131    15.984121    10.074615 
  202400    3.0102812    8.3995706    3.0892231    16.001958    11.088862 
  202600     3.047896    8.3816924    3.1012944    16.052545    10.841885 
  202800    3.0217365    8.3708084    3.0376215    15.938768    11.492808 
  203000    3.0007084    8.4282728    3.0552444    15.982329    10.897068 
  203200    3.0441274     8.343829    3.1060635    16.013801    9.4193663 
  203400      2.95848      8.36938    3.2111786     16.01606    11.280965 
  203600    3.0813648    8.3496389     3.009159    15.978534    11.257429 
  203800    3.0100607    8.3659641    3.0684352    15.947233    10.714467 
  204000    3.0234532     8.420943    2.9779035    15.931759    11.272706 
  204200    3.0037561    8.3869755    3.0094296    15.899787    11.196394 
  204400    3.0380931    8.4163356    3.0756309    16.046828    11.045554 
  204600    3.0197135    8.4069518    3.0955901    16.029847    10.946176 
  204800    2.9557602    8.4148735    3.0907834     15.93708    10.606869 
  205000    3.0935774    8.4011765    2.9747915    16.014014    12.214099 
  205200    3.0410841    8.3753069    3.1247453    16.059398      11.4738 
  205400    2.9331639     8.430526    3.0001229    15.828195    9.7793262 
  205600    3.0512097    8.3747641    3.0006346    15.949925    11.498846 
  205800    2.9906352    8.4427876    3.0626456    15.989143    9.6112326 
  206000    3.0116827    8.3931916    3.0273191    15.935776    11.849656 
  206200    3.0279884    8.4089552    2.9224575    15.871124    10.912122 
  206400    3.0080107    8.4487662    3.0464108    16.004937    9.8258721 
  206600    3.0089783    8.4229563    2.9930219    15.927189      10.9111 
  206800    3.0077942    8.4386612    3.0201455    15.968242    9.9887327 
  207000    2.9950728    8.4313667    2.9584065    15.880136    11.429287 
  207200    2.9214909    8.4171427    2.9400729    15.737261    11.751328 
  207400    3.0042082    8.4052259    2.9091781    15.818463    10.907925 
  207600    2.9356886    8.4342164    3.0475418    15.883089    10.410882 
  207800    2.9681538    8.4156923    3.0003799    15.866077    11.239101 
  208000    3.0402054    8.3895113    2.9518844    15.899424    10.688996 
  208200     3.091807     8.421924    2.9058047     15.96312    10.022446 
  208400    3.0582602    8.3849848    2.9222554    15.892337    11.302476 
  208600    3.0766209    8.3422734    3.0085356    15.963433      11.9302 
  208800    3.0394575    8.3765952    3.0817765    16.015278    10.457467 
  209000    3.0140028    8.3354908    3.1786144    16.032849    10.822708 
  209200    2.9778389    8.3763247    3.2307192    16.071569    9.6618326 
  209400    2.9926356    8.3816355    3.1439605    16.012305    11.921911 
  209600    2.9686814    8.3619469    3.0412601    15.854003    10.940758 
  209800    3.0231373    8.3745752     3.025249    15.932263    11.014329 
adapt lambda = 0.42 a0 = 1.26
  210000    3.0804128    8.3403584    2.9664266    15.925094     11.43444 
  210200    3.0029847    8.3672187    2.9397028    15.809146    11.224344 
  210400    3.0153657    8.3965524    3.0287847    15.946124    11.115903 
  210600    2.9981659    8.3740881    3.0652033    15.934292    10.048321 
  210800    2.9952887    8.4125753    2.9772337    15.880496    11.117495 
  211000    2.9042994    8.3422081    3.0164005    15.712879    11.088679 
  211200    2.9357551    8.3940718    3.0834206    15.878923    11.125602 
  211400    2.9580219    8.3795515    3.1460541     15.96042    11.123853 
  211600     2.942006    8.4202322    3.0727775    15.903812    10.916064 
  211800    2.9344999    8.4231615    3.0643562    15.887067    11.639921 
  212000    3.0468096    8.3491781    3.0414312    15.958539    10.870495 
  212200     2.928605    8.3871228    3.0806477    15.858482    12.004163 
  212400    2.9401919    8.3481231    3.1344238     15.89063    11.122504 
  212600    3.0391468    8.3692842    3.0282738    15.953999    10.664519 
  212800    2.9592857    8.4066009     3.111022    15.954332    10.299332 
  213000    2.9508301    8.4486147    3.0187169    15.891364    11.579569 
  213200    3.0553445    8.3719185    2.9608404    15.913484    11.536536 
  213400    3.0179139    8.3901165    2.9808504    15.895574    10.230916 
  213600    2.9571613    8.4379874    3.1191144    15.990626     10.26483 
  213800    2.9962493    8.3938143    3.0411858    15.927127    11.718484 
  214000    2.9696058     8.360269    3.0932434    15.905694    10.990242 
  214200    2.9043742    8.3827121    3.1270918    15.864187    10.254663 
  214400    2.9156601    8.4493755    3.0979647    15.918644    10.777854 
  214600    2.9988189    8.4242638    3.0103785    15.930622    11.530896 
  214800    3.0237189    8.3906753    3.0894741     16.01346    10.285457 
  215000    3.0417631    8.4467985    3.1347652    16.141927    11.855148 
  215200    3.1519338    8.4539226    3.0519402      16.2314    10.153771 
  215400    3.0868347    8.4681419    3.1268772    16.222956    11.519063 
  215600    3.0845844     8.431267    3.0922946    16.148125    11.162724 
  215800    3.0511173    8.4476941    3.1091521    16.131234    10.810083 
  216000    3.0515819    8.4112704    3.0970658     16.08342    10.828133 
  216200    3.1528541     8.455655    2.9149353    16.097507    12.703505 
  216400    3.0248655    8.4137705    3.0559689    16.004769    10.167317 
  216600    3.0433192    8.4448983    2.9243157     15.93191    10.974605 
  216800    3.0103039    8.4577611    3.0022293    15.973188    11.633033 
  217000     3.062787    8.4043923    2.8333539     15.82963    11.195583 
  217200    2.9269223    8.4112939    2.9981927    15.797675    10.601659 
  217400    3.0001934    8.3641865    2.9564077    15.818634    10.849002 
  217600    2.9948042    8.4161815    3.0148115    15.920953    9.4723477 
  217800    2.9539357    8.3775642    3.0087888    15.815041    11.216882 
  218000    2.8645167    8.4219247    2.9802326    15.696784    11.712891 
  218200    3.0007983    8.3452426    2.9801707     15.82436    10.920818 
  218400    3.0008125    8.4492639    2.9740571    15.922289    11.624086 
  218600    3.0008192    8.3976384    3.0219431     15.91856    10.343938 
  218800    2.9972545    8.3747004    2.9878994    15.856234    10.453265 
  219000    3.0225679    8.3671665    2.9675538    15.866305    11.607226 
  219200    2.9728215    8.3900158    2.9970651    15.844084    10.643018 
  219400    3.0359502    8.3819376    2.9220647    15.855651    11.744011 
  219600    2.9928926     8.432569     2.877243    15.796906    10.153758 
  219800    3.0940644    8.4424729    2.9622054    16.043454    11.601357 
adapt lambda = 0.44 a0 = 1.32
  220000     3.100713    8.4552224    3.0751622    16.179129    11.938339 
  220200    3.0582925    8.4377861    3.0375335    16.060465    9.9177052 
  220400    3.0105565    8.4473345    3.0423009    16.003212    11.901907 
  220600    2.9790934    8.4403745    3.0665122    15.973292     10.96659 
  220800    2.9535174    8.3754204    3.0246109    15.828092    9.7499615 
  221000    3.0338014    8.3680445    2.9297632    15.846234    11.131099 
  221200    2.9979891    8.3981303    2.9821638    15.875029    11.114845 
  221400    2.9351121    8.4016241    3.0541251    15.856216    11.538583 
  221600    2.9266701    8.4067208    3.0951237    15.889655    11.837959 
  221800    2.9335096    8.4085685    3.1225838    15.929217    11.011064 
  222000    2.9349522    8.3753678    3.1367269    15.912322     11.28701 
  222200    3.0233831    8.3581368    2.9358361     15.82678    11.487712 
  222400    2.9955787    8.4219893    2.9863802    15.899491    11.082452 
  222600    2.9833391    8.4168777     3.027789    15.917438    12.118173 
  222800    3.0165452    8.3785934    3.0613313     15.96248    9.9024875 
  223000    3.0563714    8.4151646    2.9644151    15.961845    10.270723 
  223200    3.0096242    8.4482207    3.0053547    15.965754    11.473288 
  223400    3.0847958     8.434461    3.1023312    16.161672    10.664361 
  223600    3.0716688    8.4188097    3.1669449    16.190954    10.468135 
  223800    3.0425135    8.3956694    3.1823371    16.139495     9.269998 
  224000    3.0470793    8.4121171    3.1491048    16.129556    11.301013 
  224200    3.0782187    8.3840127    2.9971189    15.996151    10.596071 
  224400    2.9546536    8.4271777    3.0502853    15.907227    10.541112 
  224600    2.9278386    8.4091699     3.014305    15.813037    12.384103 
  224800    3.0595183    8.4198076    2.9671162    15.973907    11.865041 
  225000    3.0413185    8.4539862    2.9573108    15.970994    10.917355 
  225200    2.9620579    8.4590627    3.0293008    15.929229    10.394316 
  225400    3.0503602    8.4054053     3.043314    16.021972    11.096292 
  225600    3.0636719    8.4125644     3.035567    16.041341    12.271096 
  225800    3.0185818     8.455915    3.1022228    16.083747    10.504945 
  226000    3.0583823    8.3996741    3.0272338    16.012188    11.646432 
  226200    3.0474293    8.4110367    2.9696496    15.949545    11.056759 
  226400     2.963679    8.4310647    2.9472843    15.821645    11.949548 
  226600    2.9409526    8.4491766    2.9334218    15.791822    11.332065 
  226800    3.0435101    8.4262871    2.9337939    15.923063    11.284033 
  227000    2.9559573      8.47097    3.0176501    15.920339    10.893302 
  227200    2.9401172    8.4408328    3.0635028    15.912306    11.914137 
  227400     3.058073    8.4605348    2.9855304    16.030881    11.602303 
  227600    3.0598898    8.3939501    2.9494642    15.930954    10.427983 
  227800    3.0350127      8.42208    2.9450622    15.917385    12.466715 
  228000    2.9435428      8.39931    2.9660587    15.778475    11.082232 
  228200    3.0047471     8.344912    2.8980981    15.747877    11.040789 
  228400    2.9602179    8.3930839    3.0260054    15.857196     10.81299 
  228600    3.0067176    8.3872568    2.9384961    15.833574    11.454848 
  228800    2.9025858    8.4150618    2.9585184    15.725282    10.904277 
  229000     2.941502    8.3826397    3.0472939     15.83998    10.674808 
  229200    2.9632801    8.3285493    3.1410764    15.912323    12.226321 
  229400    3.0075285    8.3640605    2.9587423     15.83184    11.939223 
  229600    2.9617732    8.3983746     2.963431    15.802244    11.379679 
  229800    2.9723165    8.3673134    2.9086845    15.732243    10.727383 
adapt lambda = 0.46 a0 = 1.38
  230000    2.9318804    8.4030292    2.8793389     15.67799    9.2888282 
  230200    2.8578428    8.3573143    3.0165794    15.658515    10.681238 
  230400    2.9006246    8.3882359    2.9376017    15.674599    10.724792 
  230600    2.9307882    8.3679339    2.9416454    15.703564    11.966624 
  230800    2.8983361    8.3554742    2.9245453     15.62535    10.770101 
  231000    2.9115785    8.4250273    2.7835372    15.573748    11.769614 
  231200     2.902518    8.4095985    2.9531358    15.714334    10.039809 
  231400    2.9104558    8.4261989    2.8974571    15.687157    10.527299 
  231600     2.978667      8.41642    2.8853607    15.767547    10.309238 
  231800    3.0589985     8.329763    2.8496763    15.765643    11.907578 
  232000    2.9350552    8.4203448    3.0577812    15.878508    11.408417 
  232200    3.0492616    8.3997607    3.0449274    16.016294    11.420643 
  232400    3.0636331    8.3785849    3.0290858    16.000823    10.683943 
  232600    2.9565605    8.4457055    2.9507674    15.829096    11.498943 
  232800    2.9973842    8.4303274    3.0793133    16.003469    9.7265947 
  233000    2.9461144    8.4741908    3.0060404    15.897193    11.718705 
  233200    2.9538321    8.4485432    3.0520586    15.929135    11.854756 
  233400    3.0329193    8.3797704    2.9739541    15.900829     10.95343 
  233600    3.0552951    8.3927187    3.0144215    15.987791     10.71835 
  233800    3.0023333    8.3572215     3.118436    15.976906    10.462955 
  234000     3.037047    8.3635385    3.0007009    15.917532    11.403536 
  234200    2.9543279    8.4393978    2.8783113    15.746985    11.862832 
  234400    2.9424828    8.4278634    3.0417246    15.881105    10.394415 
  234600    3.0640176     8.364605     2.932732    15.891065    11.209649 
  234800    2.9320169    8.4061606     3.022699    15.824686    11.205214 
  235000    3.0169751    8.4362372    2.9831707    15.942608     9.730213 
  235200     3.033999    8.4675652    2.9899196    16.006208    11.689562 
  235400     3.110331    8.4548621    3.0074705    16.125496     9.900842 
  235600    3.0550912    8.4754472    3.0137799    16.069573    10.542253 
  235800    3.0317332    8.4218396    3.1286132    16.095779    10.544742 
  236000    3.0063103    8.3889877    3.0416365    15.937835    9.4920669 
  236200    3.0994351    8.3744816     3.079246    16.100556    11.006727 
  236400    3.0149297    8.4311612    3.1001776    16.051472    13.048904 
  236600    3.0108842    8.4131246     3.047402    15.974595    10.094869 
  236800     2.929981    8.3874234    3.0690091    15.849206    11.479354 
  237000    2.9507911    8.4017598    3.0948027    15.920536    10.826065 
  237200     2.995842    8.3585144    3.0755239    15.925554    11.064314 
  237400    2.9724996    8.4227361    2.9254441      15.8047    11.582691 
  237600    3.0244527    8.4531687    2.9158307     15.90341    11.544896 
  237800    2.9534535    8.4484478    3.0205516    15.896964    10.386872 
  238000    3.0729578    8.4590108    2.9280195    15.994162    10.364548 
  238200    3.0425522    8.4208029    3.0539932    16.036342    10.434576 
  238400    3.0779538    8.3767627    3.0675643    16.058949    11.562082 
  238600    3.0824704    8.3799221    3.0187114    16.020027    11.799058 
  238800    3.0777241     8.424706    2.8774873    15.916471    9.7185007 
  239000    2.9431365    8.4212321    3.0045477    15.838277    10.316925 
  239200     2.935987     8.403629     3.090179    15.895586    11.851535 
  239400    2.9743804    8.3654548    3.0483593    15.873154    12.398144 
  239600    2.9653223    8.3689035    2.9921417    15.806805    11.225357 
  239800    3.0527659     8.439908    2.8772296    15.893997    11.513132 
adapt lambda = 0.48 a0 = 1.44
  240000    3.0109403    8.4107548    2.9752057    15.900113     10.64193 
  240200    3.0166579    8.3623218    3.0700195    15.955066    10.889762 
  240400    3.0296922    8.4386564     2.967813    15.948735    10.660783 
  240600    2.9624327     8.419839    3.0248205    15.886087    11.076824 
  240800    3.0433661    8.3971777    3.0485534    16.008498    11.606297 
  241000    3.0118073    8.4422487    3.0380765    15.995777    10.313831 
  241200    3.0395676    8.4570074    3.0243935    16.038473    10.319124 
  241400    3.0845185    8.4403674    3.0624504    16.127282    9.9703394 
  241600    3.0442231    8.4078494     3.012818    15.984719    12.016201 
  241800    2.9667023    8.4523083    3.0519082    15.952045    11.664767 
  242000    3.0313915     8.405637     3.041692    15.992143    11.193136 
  242200    3.0768831    8.4188168    2.9825513    16.014385    10.947164 
  242400    2.9167901    8.4651233    2.9980405    15.836161    10.303311 
  242600    3.0114519    8.4040217    3.0319985    15.950939    10.476768 
  242800    2.9311744    8.4245346    3.0180677    15.837166    11.022518 
  243000    3.0871059    8.3707286    2.9090339    15.908106    9.7984312 
  243200    2.8771859    8.4043992    3.0635882    15.781608    10.216125 
  243400    3.0637654    8.3787148     2.979414    15.951479    11.409664 
  243600    3.0317435    8.4427761    3.0708511    16.058969    10.869237 
  243800    3.0288541     8.426499     3.044592      16.0121    9.4172541 
  244000    3.0209027    8.3660725    3.1028287     15.99799    10.709291 
  244200    3.0624949    8.3551434    3.0192786    15.965868    11.115092 
  244400    3.0426324    8.4313024    3.0225319    16.015501    11.466744 
  244600    2.9963135    8.4338326    3.0024531    15.928509    10.877976 
  244800    3.0042264    8.4177189    2.9955746     15.91738    11.170395 
  245000    3.0803354    8.4002608     2.990646      16.0091    10.287408 
  245200    2.9932263    8.3803456    3.1488088    16.016749    11.734842 
  245400    2.9623149    8.3957025    3.1377253    15.974678    10.672943 
  245600    2.8924632    8.3556244    3.1362963    15.828446    10.087929 
  245800    2.9710375    8.4168894    3.0969497    15.968167    11.227114 
  246000    2.9398853    8.3802831    3.0581026    15.846009    11.877873 
  246200    3.0004905    8.3553079     3.027626    15.881419    11.854685 
  246400     3.043195    8.3719518    2.9936995    15.928161    11.376442 
  246600    2.9934343    8.4319757    3.0225439    15.942426    9.3968662 
  246800    3.0506523    8.4356151     2.933349    15.942655    10.613229 
  247000    2.9913181    8.4441066    3.0170885    15.945929    11.566381 
  247200    3.0010197    8.4507699     2.987621     15.93767    12.272057 
  247400    3.0262987    8.4218143    2.9955329    15.954525    11.886037 
  247600    3.0539382    8.3792507    2.9876223     15.94549    10.663834 
  247800    2.9443223    8.3986056    3.0243931    15.837274    11.053993 
  248000    2.9956117    8.3625778    2.9475646    15.801313    10.234733 
  248200    3.0280865    8.3610291    2.9402917     15.84118    11.338703 
  248400    3.0640138    8.3820713    2.9936572    15.969451    9.4034031 
  248600    3.0415807    8.4122752    3.1033642    16.075729    10.042221 
  248800     3.033966    8.3783908    3.0371125    15.964177     11.44526 
  249000    3.0542274    8.3479104    3.0812093     16.00817    12.232988 
  249200    3.0088575    8.4229427    3.0117375     15.94571    10.731354 
  249400    3.0061175    8.4096699     3.039517    15.956109    11.226206 
  249600    3.0116428    8.3957708    2.9877721    15.898748    12.487864 
  249800    2.9956303    8.4401445     3.091206    16.022549    10.743547 
adapt lambda = 0.5 a0 = 1.5
  250000    3.0630423    8.4279868    3.0275708    16.047824    11.022609 
  250200    3.0958537    8.4238654    3.0134944    16.078819    10.487182 
  250400    2.9408616    8.4648609    3.0301219     15.90407    11.066642 
  250600    2.9515951    8.4421979    2.9610906    15.828467    9.7890317 
  250800    2.9945168    8.3868532    2.9255716    15.801954    11.569256 
  251000     2.956071      8.39828    2.9579174    15.788087     11.64616 
  251200    2.9466294     8.428792    3.0862654    15.932792    11.148166 
  251400    3.0539511    8.4653364    2.9929587    16.036931    11.347351 
  251600    3.0685111    8.3972797    3.0511097    16.048855    10.998048 
  251800    3.1027193    8.3501652    3.0589871    16.060904    11.176426 
  252000    3.0028785    8.3848364    3.0264809    15.913383    11.077851 
  252200    3.0191606    8.3402955    3.0000855    15.866857    12.615494 
  252400    2.9728124    8.3767722    3.0043033    15.838065     10.43675 
  252600    2.9534078    8.3593674    3.0063521    15.793616    10.385367 
  252800    2.9854721    8.3399141    3.0366601    15.852543    9.2789671 
  253000     2.993062    8.3414908     3.091917    15.920756    10.721096 
  253200     2.899446    8.3245378    3.1549656    15.826498    10.087242 
  253400    2.9798769    8.3583466    2.9776071    15.803534    11.268644 
  253600    2.9577352    8.4350558    3.0484726    15.917913    10.816978 
  253800    3.0594693    8.4118679    2.9938219    15.992599    10.362667 
  254000    3.0323971    8.3888421    2.9496339    15.884797    11.038505 
  254200    3.0239082    8.3988756    2.9937768    15.926247    10.809847 
  254400    2.9834034    8.3778671    3.0085001    15.859235    12.534735 
  254600    3.0201162    8.4564964    3.0705306    16.054936    10.602134 
  254800    3.0318858    8.4049196    3.0093575    15.959832    10.700205 
  255000    2.9951838    8.3863032    3.0351151    15.911948    11.048617 
  255200    2.9924904    8.3963041    3.1528436    16.035639    10.695785 
  255400    3.0298181    8.4076435    3.1256297    16.075728    11.005577 
  255600    3.0301689    8.4014736    3.0936126    16.038067    11.343177 
  255800    2.9816384    8.4073601    3.0818343    15.959416    12.150926 
  256000    2.9783943    8.4566192    3.1421399    16.064117     10.03668 
  256200    3.0922344    8.4169906    2.9632469     16.01627    10.360325 
  256400    3.0014409    8.4514333    3.0251864     15.97653    11.211001 
  256600    3.0211366    8.4098881    3.0699634    16.009291    9.9496564 
  256800    3.0302381    8.3884354     3.012207    15.943727    11.556357 
  257000    3.0129184    8.3715286    2.9962208    15.884867    11.505847 
  257200    2.9553897    8.4176028    3.0472315    15.895702    10.996108 
  257400    2.9771529    8.3947739    2.8990595     15.75733     9.671323 
  257600    2.9924897    8.4465581    2.8204938    15.753542     11.21199 
  257800    2.9329832    8.3904767    2.9833152    15.771067    12.695489 
  258000    3.0258498    8.4183305    2.9439668    15.898803    11.528583 
  258200    2.8997344     8.397473    3.0625031    15.807403    11.400687 
  258400    3.0486887    8.4226805    3.0508088    16.044236    9.5000852 
  258600    3.0280344    8.4180531    3.0662637    16.024097    11.583006 
  258800    2.9782793    8.4373612    3.1071419    16.009688    10.620514 
  259000    3.0164429    8.4508763    2.9231211    15.896399    11.428936 
  259200    2.9603525    8.4166306    3.0058169    15.860756    12.204805 
  259400    3.0270943    8.4233215    2.9954744    15.957167    10.977665 
  259600    2.9666519    8.4034169    3.0776192    15.928789    11.215922 
  259800    3.0423011    8.3655287     2.981466    15.908165    10.335351 
adapt lambda = 0.52 a0 = 1.56
  260000    2.9826763     8.448286    2.9488277    15.868891    10.281405 
  260200    3.0485514    8.4132014    3.0287088    16.012451    12.765719 
  260400    3.0629185    8.4067105      2.91327    15.912061    11.130802 
  260600    2.9633191    8.4001352    2.9607244    15.803616    10.569124 
  260800    2.9664932    8.4211887    3.1490484    16.017752    11.740147 
  261000    2.9741587    8.4091406    2.9836109    15.851759    11.075944 
  261200    3.0291267    8.4208567    2.9477812    15.910056     10.63546 
  261400    2.9695435      8.37892    3.0677971    15.898805    10.109084 
  261600    2.9318788     8.431379    2.9111004    15.738099    10.274368 
  261800    2.9357263    8.3928838     2.858475    15.652746    10.474803 
  262000    2.8997639    8.3842594    3.0089442    15.740675    11.609131 
  262200    2.9216688    8.3557386    2.9468509    15.682901    11.240152 
  262400     2.924038    8.4038704    2.8965251     15.68426    11.389288 
  262600    2.8915076    8.4417552     2.991523    15.768371    9.8106566 
  262800    2.9877426    8.4182345    2.9854212    15.883029    11.236288 
  263000    3.0775513    8.4173981    2.9412073    15.972624    11.522258 
  263200    2.9777483    8.4707202     3.096454    16.031563    11.324727 
  263400    3.0271163    8.3667794    3.0177347    15.922918    10.712001 
  263600    3.0649108    8.4143285     2.963244     15.97264    11.345585 
  263800    2.9990177    8.4058362    3.0137731    15.915887    11.614141 
  264000    3.0103597    8.4625994    2.9906707    15.966552    11.613903 
  264200    2.9943249    8.4633627    2.9766405    15.929245    11.094412 
  264400    3.0429831    8.4528483    2.9239087    15.938949    11.161344 
  264600    3.0422306    8.4771302    2.9044822    15.942677    10.535672 
  264800     3.075882    8.4803507    2.9354303    16.027297    12.398951 
  265000    3.1633151    8.4260523    3.0794633    16.248116    10.228092 
  265200     3.182926    8.4291012    3.0442229    16.245326    12.031276 
  265400    3.1253888    8.4227824    3.0589798    16.167501    11.129278 
  265600     3.029574    8.3997474    3.0872986    16.029135    11.365752 
  265800    2.9405505    8.4368963    2.9528679    15.798384    11.275384 
  266000     2.936785    8.4116443    2.8935554    15.708175    12.073417 
  266200     2.958433      8.44151     2.963073    15.840014    11.064473 
  266400    2.9899965    8.4542921    3.0369993    15.974044    11.651217 
  266600     2.984951    8.4005757    2.9386864     15.81445    11.276366 
  266800    3.0227507    8.4502903    2.8678186    15.849968    11.091597 
  267000    2.9893574    8.4166167    2.9067079    15.805119    10.831457 
  267200    2.9685846    8.4425764    2.9332419    15.826469    9.0787461 
  267400    3.0644703    8.4689959    2.9870782    16.050481     10.05784 
  267600    3.0469176    8.4041073    3.0759384    16.048137    10.656205 
  267800     3.020232    8.4222728    3.1145377    16.064893     11.99379 
  268000    2.9928918    8.3897197    3.0371149    15.913928    10.490052 
  268200    3.0171317    8.3365034    3.0102587    15.870197    11.540016 
  268400    2.9531739    8.3511323    2.9549464    15.733625    11.699951 
  268600    2.9235893    8.3992387    3.0063272    15.788757    10.888555 
  268800    2.9653916    8.3373637    3.0263297    15.809557    10.687994 
  269000     3.005543    8.4336748    3.0402957    15.980031    11.958538 
  269200    3.0022659    8.3671905    3.0164495    15.884787    10.946502 
  269400    3.0201414    8.4127781    2.9875623    15.928287    10.937309 
  269600     2.996983     8.419213    2.9864294    15.898869    10.944995 
  269800     2.975679    8.4359827    3.0015946    15.898864    9.8938225 
adapt lambda = 0.54 a0 = 1.62
  270000    2.9898516    8.3901905    2.9636834    15.836409    10.134769 
  270200    2.9397865    8.3662468    2.9298535    15.703575    10.324669 
  270400    2.9519767    8.3766381     2.874188    15.676577    12.383099 
  270600    2.9692161    8.4029083     2.938472    15.792978    11.196808 
  270800    2.9482837     8.381105    2.9403952    15.741715    11.048895 
  271000    3.0505991    8.3961964     2.896219    15.866026    11.139135 
  271200    2.9565794    8.3898605    2.9818323    15.804344    11.514112 
  271400    2.9508508    8.3948244     2.956109    15.774996    11.016503 
  271600    2.8610874    8.4144079    3.0768414    15.780735    11.244799 
  271800    2.9449175    8.3844087    2.9773284    15.776905    11.047299 
  272000    3.0507718    8.4057398    3.0102105     15.98982    10.612274 
  272200    3.0420448    8.3968839    2.9223849    15.880054    11.949697 
  272400    3.0193512    8.3866234    3.0467648     15.96015    12.092781 
  272600    3.0332991     8.360984    3.0987928     16.00745    11.823666 
  272800    2.9971436    8.3651248    3.0864026    15.944995     10.71288 
  273000    2.9698162     8.402726    3.0684337    15.923657    12.197385 
  273200    2.9213183    8.4130282    2.9746335    15.767448    9.0040183 
  273400    2.9675024    8.3826881    2.9662124    15.797928    10.768032 
  273600    2.9636652    8.4257433    2.9403693    15.809388    10.583321 
  273800    2.9298056    8.3846408    3.0206373    15.797789    11.592053 
  274000    3.0219485    8.4095174     3.037153    15.977327    11.683059 
  274200     3.007871    8.3933168    3.1318427     16.03471    10.821787 
  274400    3.0287394    8.3609732    3.0801532    15.981964    11.138191 
  274600    2.9557618    8.4300144    3.0700534    15.931494    10.454905 
  274800    2.9835506    8.3925584    2.9970185    15.862665    10.140444 
  275000    2.9633755    8.4597787    3.1527616    16.055381    10.763567 
  275200    2.9674004    8.4025133    3.0186693    15.870058    10.681053 
  275400    2.9921679    8.4091749    2.9663233    15.861506    12.366531 
  275600    2.9795699    8.3767989    2.9968595    15.840779    10.615329 
  275800    3.0070626    8.4326798    3.0220021     15.96302    11.349226 
  276000    3.0351837    8.3761894    2.9744909    15.901179    10.302391 
  276200    2.9246588    8.3912233    2.9616474    15.737665    10.054014 
  276400    3.0679948    8.3516439    2.9054091    15.856744    11.511346 
  276600    2.9450456    8.4338426    2.9486482     15.79785     9.784884 
  276800    3.0379918    8.4364109    2.9844743    15.975594    9.7220007 
  277000    2.9559053    8.4647113    3.0544917    15.950844    10.910701 
  277200    2.9436971      8.43121     3.004326    15.848874      11.5352 
  277400    2.9590902    8.4379301    2.9795668    15.853913    10.050894 
  277600    3.0028073    8.4078179     3.007074    15.916851    12.308905 
  277800    3.0468735     8.403222    3.0348295    16.006077    11.453946 
  278000    2.9646456    8.4168506    3.0177629    15.879358    11.363002 
  278200     3.004353    8.4784874    2.9094013    15.892165    10.285552 
  278400    3.0919082    8.3872376    2.9605387     15.98332    9.4971522 
  278600    3.0011884    8.3972831    3.0757219    15.972537    11.298537 
  278800    3.0257669    8.4311389    2.9338909    15.901411     9.981003 
  279000    3.0562163    8.4036889    3.0003485     15.98607    12.338032 
  279200    2.9659083    8.4227956    3.0397624    15.909196    9.6203865 
  279400    3.0483031    8.4350289    3.1395525     16.14475    11.096312 
  279600    3.0963102    8.3515249    3.0913253    16.084993    11.550339 
  279800    3.0598168    8.3998611    3.0681643    16.055456    11.957756 
adapt lambda = 0.56 a0 = 1.68
  280000    3.0641841    8.3595641    3.0486607    16.002203    10.776153 
  280200    3.0227579    8.3895569    3.1096577    16.031084    11.042039 
  280400    3.0557513     8.406455    3.0041443    15.991934    10.471086 
  280600    3.0347707    8.3881254    2.9577078    15.895713    9.4245404 
  280800    3.0115083    8.4126531    2.9837941    15.911451     11.99044 
  281000    3.0078618     8.381658     3.046063    15.937258    10.758563 
  281200    3.0577242    8.3596302     2.928969    15.872892    11.163148 
  281400    2.9350412    8.4038225    3.0207611    15.824944     11.47282 
  281600     2.967835    8.3080964    3.0149657    15.772589    10.744376 
  281800    2.9293655    8.3520582    2.9842528    15.728162    10.968872 
  282000     2.983148    8.3609096    2.9825412    15.815935    11.037031 
  282200    2.9308239    8.3901439    2.9809426    15.765124    12.286219 
  282400     2.949667    8.3821774    2.9610427    15.765508    11.435518 
  282600    2.9933012     8.383122    2.9727586    15.843587    11.733541 
  282800    3.0405143    8.4032946     2.971758    15.933544    11.424401 
  283000    3.0012328    8.3968677    3.0725809    15.969047    10.179115 
  283200    3.0213605     8.368495    3.0297717    15.928041    10.281591 
  283400    2.9977435    8.3915601    3.0047109    15.890638    11.988969 
  283600     2.971841    8.4082955    3.0543075    15.918136    11.497714 
  283800    3.0045102    8.4136772    3.0394886    15.957678     11.59165 
  284000    3.0152199        8.407    3.0092826    15.936851    11.197785 
  284200    3.0211462     8.410813    2.9614896    15.901756    10.953338 
  284400    3.0093767    8.3990496     3.059152     15.97001    12.608515 
  284600    3.0590477    8.3739555     3.091294    16.051527    11.221319 
  284800    2.9872926    8.3979217    3.0064769    15.883097    10.291956 
  285000    2.9163294    8.3871957    2.9905757    15.750078    10.631151 
  285200    2.9367786    8.3554278    2.9952011    15.753594    10.581077 
  285400    2.9118605    8.3644843    2.9904646    15.720556     9.734945 
  285600     2.874272    8.3462134     3.021684     15.67715    10.753266 
  285800    2.9910835    8.3693503    2.9673996    15.821132    10.885514 
  286000    3.0714653    8.3779938    2.9010646    15.883953    11.236241 
  286200    2.9499099    8.4028508    2.9579078    15.783411    10.622086 
  286400    2.9348981    8.4188744    2.9655902    15.784611    10.559036 
  286600    2.9818901    8.4166634    3.0559212    15.943183    10.650697 
  286800    3.0013849    8.3915548    2.9558023    15.847184    11.475857 
  287000    2.9733757    8.4312402    2.9118743    15.800948    11.583637 
  287200    2.9477655    8.4257885    2.9985093    15.843735    10.338078 
  287400    2.9545893    8.4124253    2.9723254    15.814419    10.970636 
  287600    3.0358898    8.3682417    2.9440407     15.86384    11.671401 
  287800    2.8606649    8.4416027    2.9972866    15.727741    10.991044 
  288000    2.9353482    8.3999977    2.9384995    15.739318    12.157682 
  288200    2.9608956    8.4015785    2.9822612    15.822962    10.238625 
  288400    2.9622664    8.4130774    2.9264022    15.780658    11.225869 
  288600    2.9901999    8.4112515    2.8664266    15.760735    12.137681 
  288800    3.0131583    8.3586387    2.9676407    15.843757    10.868204 
  289000    2.9013887    8.4385373    2.9747629    15.763207    12.480064 
  289200    2.9968666    8.3930567    2.9822758    15.868385    9.8127203 
  289400    2.9826621    8.3953758    2.9663263    15.833458    11.686623 
  289600    2.9712231    8.3736372    3.0094136    15.837657    12.003358 
  289800    3.0085643    8.3687668    2.9433597    15.822717    11.490944 
adapt lambda = 0.58 a0 = 1.74
  290000    2.9850329    8.3678225    2.8938507    15.736984    11.586837 
  290200    2.9729007    8.3775264    3.0136014    15.848249     10.73897 
  290400    2.9980952    8.4332388    2.9482334    15.876366    11.768292 
  290600    2.9206539    8.4405775    3.0157311    15.835099    11.642537 
  290800    3.0540835    8.3951926    2.9258489    15.899876    11.393564 
  291000    2.9769139    8.4374013    3.0358071    15.936347    11.545879 
  291200    3.0332783    8.4378533    3.0189855    16.004481    11.667036 
  291400    3.0195657    8.4015617    3.0622829    15.990928    12.050783 
  291600    2.9827316    8.4343182     3.181819    16.087998    10.363167 
  291800    3.0459635    8.3975505    3.1207709    16.084982    11.213972 
  292000    3.0190516    8.3788499    3.0016189    15.906782     8.904366 
  292200    2.9254271     8.435899     3.022173    15.844019    11.468875 
  292400    3.0200827    8.3559468    2.9985094    15.882315    13.365446 
  292600    3.0189172    8.4486821    3.0344969    16.009291    11.192993 
  292800    3.0674929    8.4088997    3.0396952    16.047534    11.639906 
  293000    3.0107384     8.433406    3.0659002    16.013156    11.135804 
  293200    3.0616204    8.3857848    3.0552173    16.031136    11.360653 
  293400    3.0674514     8.406046    3.0541866    16.059109    10.446475 
  293600    2.9575784    8.4157651    3.1187131    15.968628    10.409857 
  293800    3.0515494    8.4044879    2.9605633    15.940087    9.6669571 
  294000     3.009476    8.4344594    2.9918205    15.938237    11.817905 
  294200    2.9587826    8.4760601    2.9986463    15.910661    12.075774 
  294400    3.0213085    8.4712533    2.9908836    15.991834    10.885949 
  294600    3.0685972    8.4321331    2.9494907    15.982218    10.369531 
  294800    2.9771043     8.463934    3.0009439    15.928301    10.932609 
  295000    2.9917719    8.4087841    3.0277819     15.92198    11.105283 
  295200    3.0154181    8.4009549    3.0472638    15.969084    10.510408 
  295400    3.0339341    8.4603818    3.0216458    16.030653    11.101743 
  295600    3.0849455     8.427635    2.9849677    16.037707    11.383205 
  295800    3.0444615    8.4012842    2.9229905    15.888684    10.849849 
  296000    2.9411927    8.4028124    2.9812058    15.793601    11.636035 
  296200    2.8757739    8.3670488    2.9950874     15.67364    11.212203 
  296400    2.9356418    8.3815478    3.1192776    15.902086    11.879651 
  296600    2.9846825    8.3833532    3.0952656    15.953404    10.376068 
  296800     2.965997    8.4293269    3.0651395    15.941237    10.422691 
  297000    2.9273226    8.4161457    3.0379957     15.84293    12.106716 
  297200    3.0154156    8.4656113    2.9383196    15.924793    12.011723 
  297400    2.9376536    8.3987395    3.0016552    15.804672    10.412152 
  297600    3.0269921    8.3463559     2.972396     15.85697    11.899113 
  297800    2.9591198     8.417581    2.9430646    15.797106    11.448191 
  298000    2.9676641     8.386393    2.9972184    15.832882    10.721672 
  298200    3.0140457    8.4305889    2.8942327     15.84363    9.9389308 
  298400    3.0212104    8.3988444    2.9635219    15.891916    11.953185 
  298600    2.9423481    8.4735465    2.9018369    15.786699    11.794998 
  298800    2.9710534    8.4151546    2.9951803    15.864687    10.716817 
  299000     2.987803    8.4023847    2.9217149    15.803563    11.182284 
  299200    2.9516119    8.3679788    3.0678411    15.861024    11.136307 
  299400     3.069998    8.3658449    2.9834703     15.95201    9.8487431 
  299600    3.0058521    8.3561135    3.0423276    15.904965    11.555918 
  299800    2.9845551    8.4037877    3.0587243    15.937106    11.645287 
adapt lambda = 0.6 a0 = 1.8
  300000    2.9481831    8.4020076    3.0782529    15.900324    11.029471 
  300200    2.9941775    8.3693816    2.9841012    15.842503    11.203471 
  300400    2.9540451    8.4290966    3.1003527    15.958301    12.227938 
  300600    3.0085236     8.397396    3.0614411    15.969366     11.00343 
  300800    3.0005122    8.3540148    3.0501382    15.902671    11.385621 
  301000    2.9852012    8.4197049    3.1011896    15.996457    10.541752 
  301200    2.9607609    8.4390612    3.0631276     15.94111     10.76251 
  301400    3.1034188    8.4032657     3.031931    16.087997    9.8643687 
  301600    3.0519157    8.4254234     3.026127    16.027135    11.107586 
  301800    3.1215696    8.3845318    2.9939902    16.058535    11.506197 
  302000    3.0048324    8.4009316    3.0418202    15.947747    12.835397 
  302200    3.0137995    8.4506281    3.0139865    15.983053    12.252811 
  302400    3.0778864    8.4472686    2.9447137    16.006504    9.6219977 
  302600    2.9411383    8.4520577    3.0356244    15.897184    11.790922 
  302800       2.9881    8.4644716    3.0409145    15.985295    10.245559 
  303000    3.0724195     8.366437     3.058152    16.030914    12.322413 
  303200    3.0285371    8.4300824    3.0473753    16.017992    11.257713 
  303400    3.0982026    8.3897881    2.9411886    15.975957    11.523683 
  303600    3.0191122    8.3972793    3.0061238    15.929807    11.928641 
  303800    2.9648939    8.4354517    3.0276488    15.908218    10.651308 
  304000    3.0222289    8.3991663    3.1104091    16.040652    10.581595 
  304200    2.9553588    8.4355603    3.0805221    15.946904    10.595348 
  304400    3.0024223    8.4234752     3.038268    15.963125    11.466017 
  304600    2.9898096    8.4478639    2.9255247    15.855861    11.255124 
  304800     2.969792    8.4016406    3.0338705    15.887972    11.314129 
  305000    2.9606115    8.3805079    3.0180172    15.837222    10.218273 
  305200    2.9187131    8.3930013    3.0746986     15.84358    9.6246126 
  305400    2.9803253    8.3775242    3.0452367    15.891014    10.946472 
  305600     3.001561    8.3888972    3.0258524     15.91484    11.864322 
  305800    2.9152709    8.4307105    3.0899758    15.891406    9.8297798 
  306000    3.0382709    8.4046652    2.9587359    15.918529    12.106608 
  306200    2.9809281    8.4715386    3.1129725    16.053668    11.556848 
  306400    2.9920988    8.4433753    2.9767904     15.90607    12.144568 
  306600    3.0035005     8.446421    3.0579679    16.007387    11.143743 
  306800    2.9570927    8.4326585     3.038365    15.904445    11.207447 
  307000    3.0062875    8.3917496    3.0150546    15.913981    9.5965769 
  307200    3.0183786    8.3787655    3.0395919    15.943662     11.13172 
  307400    3.0324409    8.4151903    3.0712641    16.032841     12.20501 
  307600    3.0513076    8.4631478     3.052391    16.090212    10.691936 
  307800    3.0351014    8.4493809    2.9765685    15.976325    11.244093 
  308000    3.0177769    8.3918382     3.096766    16.013006    9.9681218 
  308200    3.0347627    8.3959408    2.9352623    15.881071    12.011033 
  308400    2.9559492    8.4088491    3.1245004    15.965056    10.001167 
  308600    3.0828119    8.4219513    2.9605291    16.004386    11.034712 
  308800    3.0035975    8.4326184     3.134222    16.069984    11.890912 
  309000    3.0101934    8.4415003    3.0250698    15.979602    11.297081 
  309200    2.9921131     8.443242    3.1405291    16.069697    10.938021 
  309400     3.090055    8.4019225    2.9420314    15.976719      12.3306 
  309600    3.0484981    8.3567512    3.0401418    15.967354     11.32512 
  309800    3.0519209    8.3551863    3.0679982    15.998777    11.919001 
adapt lambda = 0.62 a0 = 1.86
  310000    3.0084043    8.3688839     3.066044    15.945278    10.434365 
  310200    3.0261937    8.3838144    2.9371854    15.858021    10.269557 
  310400    2.9302263    8.4471026    3.0085756     15.84882    10.705529 
  310600    3.0917046    8.4832919    2.9932266    16.111757    10.948281 
  310800    3.1040305    8.3808135    3.0531024    16.087634    11.470772 
  311000    3.1034077    8.3994334    3.1251431    16.177361    11.718072 
  311200    3.0652842    8.4459656    3.1403534    16.181946    11.126472 
  311400    3.0744053    8.4186339    3.1077992    16.135735    11.291147 
  311600    3.0644765    8.4479414    3.0365845    16.078942    12.446426 
  311800    2.9905663    8.3859983    3.1147452     15.98435    10.615809 
  312000    3.0267336    8.3690097    3.1743417    16.081182    11.114032 
  312200    2.9772488    8.4380907    3.1383734    16.040104    10.529102 
  312400    2.9888495    8.4212916    3.0684837    15.970808    11.256968 
  312600    2.9634678    8.4176377    2.9599078    15.820525    11.574493 
  312800    3.1036449     8.420659    2.8913332    15.965132    9.7970485 
  313000    3.0085936    8.4183392    2.9676446    15.896618    11.475038 
  313200     3.019747    8.4393289    3.1574163    16.124101    10.479444 
  313400    3.0604207    8.4234072    3.0227229    16.034466     11.61636 
  313600    2.9826434    8.3479288    3.0294759    15.849133    11.380787 
  313800    3.0609583     8.370274    2.9884308    15.947847    11.489866 
  314000    3.0948069    8.4493887    2.9803102    16.069588    9.8370292 
  314200    3.0942322    8.4413327    2.9576645    16.038025    12.558556 
  314400    3.0658273    8.4231037    2.9357513    15.955297    11.599385 
  314600    3.0741672    8.4070686     2.947527    15.963541    10.125989 
  314800    3.0237144    8.4564854    2.9759812     15.96577    11.098295 
  315000    3.0248199    8.4628774    2.9831978    15.981036      11.2453 
  315200    3.0206143    8.4211436    2.8652925    15.815092    9.5616459 
  315400    2.9937979    8.3964832    3.0053031    15.890238    9.8515453 
  315600    3.0379456    8.3947551    2.9850978    15.934493    11.576506 
  315800    2.9802328    8.4299537     2.993046    15.891114    10.412317 
  316000    2.9846317    8.3868368    3.0096696    15.871216    9.6354335 
  316200    2.9283003    8.4526036     3.116123    15.958981    11.124005 
  316400    2.9860358    8.4927396    3.0455042    16.015058    12.588026 
  316600    3.0461487    8.4037566    2.8516817    15.822377    11.425873 
  316800    3.0383114     8.447967    3.0255073    16.028663    11.249627 
  317000    3.0232804    8.4106406    2.9918417    15.935135    11.468888 
  317200     2.931175     8.459613    3.0278991    15.882076    10.452973 
  317400    2.9842926    8.4008043    3.0469336    15.921939    10.103554 
  317600    3.0108432    8.4323831    3.0212848    15.967675     11.74616 
  317800    3.1242219    8.4348221    3.0432827    16.162094    11.077199 
  318000     3.060622    8.4498321    3.2338801     16.27235    11.768384 
  318200    3.1257616    8.3811784    3.0670945    16.134571    11.432729 
  318400    2.9485402    8.3906295    3.1271732    15.938402    11.454015 
  318600    3.0749473    8.3847134    3.0226027    16.017431    10.176623 
  318800    3.0245202    8.4045145     3.063831    16.002857    9.6405297 
  319000     2.990533     8.443705      3.02473    15.951992     10.55124 
  319200    3.1178877    8.4057669    2.9618218    16.042082     11.71037 
  319400    3.0367203    8.4074672    3.0973888    16.057659    10.798337 
  319600    3.0647423    8.4153714    3.0128236     16.02301    11.484996 
  319800    3.0057671    8.4169832    3.0766203           16    10.920242 
adapt lambda = 0.64 a0 = 1.92
  320000    3.1333254    8.4747556    3.0530292    16.225423    10.210278 
  320200    3.0776363    8.4297765    3.0161075     16.06003    10.697208 
  320400    3.0589657    8.4572946     3.020628    16.064077    12.020439 
  320600    3.0956256    8.3661141    2.9789853    15.986216     11.38556 
  320800    3.0444472    8.4887845    3.0669742    16.120146    11.225876 
  321000    3.0604116    8.4306374    3.0459581    16.064918    11.707959 
  321200    3.0519078    8.4552821    2.9779658    16.008821    11.674902 
  321400    3.0075665    8.4465172    2.9128509    15.868462    12.512415 
  321600    2.9485005    8.4519872    3.0233007    15.895827    11.213384 
  321800    2.9913753    8.4786615    2.9669863    15.930467    11.047737 
  322000    3.0533192     8.415874     2.876993    15.870556    10.077464 
  322200     3.053823    8.4227818    2.9283118    15.929538    11.924856 
  322400     3.119693    8.4152573    2.9440873    16.036544    10.635294 
  322600    3.0757558    8.3752113    3.1268228    16.113361    11.247177 
  322800    3.0690935    8.4075861    3.0364206    16.045345    10.550586 
  323000    3.0662283    8.3843076    3.0446159    16.025966    12.742631 
  323200     3.021969    8.3765522    3.1163784    16.023618     10.45133 
  323400    3.0537592    8.4230112    2.9777738    15.979133    11.529485 
  323600     3.048963    8.4650568    3.0636744    16.099889    10.402456 
  323800    2.9787018     8.354178    3.1010178    15.921014    11.366373 
  324000    2.9296828    8.3962203    3.1175772    15.906124    11.943756 
  324200    2.9939201    8.4171988    3.0794781    15.985312    11.681184 
  324400    2.9402058     8.438647    3.0596962    15.906447    11.223504 
  324600    3.0156352    8.4415394    3.0436796     16.00641    9.8068887 
  324800    3.0282748    8.3894074     2.976112     15.90566    11.113006 
  325000    2.9986585    8.3943972    3.0168994    15.907035    12.998687 
  325200    3.0710103     8.393631    2.9439773     15.94182    10.621726 
  325400    3.0016431    8.4471911    3.0530353     16.00044    9.6436115 
  325600    3.1019168     8.370902    2.9446731    15.966124    9.4183265 
  325800    3.0183589    8.3772179    3.0571269    15.959619    9.4658593 
  326000    3.0457633    8.3431518    3.0643441    15.973857    10.600999 
  326200    2.9960092    8.3872841    3.0778849    15.956936    10.524407 
  326400    3.0396116    8.4280311    3.0618795    16.047048    10.961303 
  326600    3.0765319    8.3972983    3.0293993    16.039188     10.48487 
  326800    3.1081516    8.4439992     3.057348    16.161244    10.161355 
  327000    3.0977169    8.4109214    2.9426023    15.997776    10.035855 
  327200    3.0667847    8.4255108    3.0155678    16.038956    9.7986031 
  327400    3.1039941    8.4380285    2.9629828    16.054674    12.355139 
  327600     3.078976    8.4663417    2.9811783    16.063675    11.681205 
  327800    2.9476216    8.4342767    3.0355205    15.889019    11.295414 
  328000    2.9496975    8.4259098    3.0196649    15.867909    10.694164 
  328200    2.9027268    8.4452679    2.9292896    15.726471    10.806866 
  328400     2.909486    8.4300734    2.9142884    15.706409    10.114368 
  328600    2.9330368    8.4186231    2.9281851    15.744164    11.233331 
  328800    3.0668493    8.4153991    3.0200611    16.033434    10.257475 
  329000    3.0102819    8.3945114    3.0655126    15.973189    11.893807 
  329200    2.9688232    8.3983259    3.0417485    15.891083    9.1511221 
  329400    3.0192567    8.4363658    2.9723785    15.935365    10.744134 
  329600    2.9993367    8.4003759    3.0704686      15.9676    12.672001 
  329800    3.0921504    8.4251576    2.9269935    15.988058    12.186295 
adapt lambda = 0.66 a0 = 1.98
  330000    3.0264431    8.4284505    3.0428171    16.008662    11.001815 
  330200    3.0094577    8.4411048     3.057535    16.010569    10.980209 
  330400    3.0972034    8.4099734    2.9441685    15.997624    10.674441 
  330600    3.0716674    8.4307124    3.0305246    16.066434    10.295505 
  330800    3.0775587     8.415262    2.9598877     15.98918    10.489622 
  331000    3.0606282    8.3999494    3.0841164    16.072713    9.8621953 
  331200    3.0701023    8.4029117    3.0334706    16.039233     9.781248 
  331400     3.015606    8.4190131    3.1179291     16.05809    11.388222 
  331600    3.1003369    8.4274356    3.0487739     16.12439    11.365114 
  331800    3.0067159    8.4343943    3.1270458    16.069259    11.489324 
  332000    3.0523422    8.3865149    3.0388409     16.00158    10.898675 
  332200    3.0597341    8.4539079    3.0042401    16.045454    10.905507 
  332400    3.0864615    8.4324107     2.967756    16.027544    11.222705 
  332600     3.022693    8.4507434    3.0351357    16.017652    10.996024 
  332800    2.9736409    8.4191233    2.9744568    15.851811    10.728166 
  333000    2.9640788    8.4252078    3.0357655    15.904869    12.561057 
  333200    2.9804014    8.3780767    3.0624763     15.90892    10.623274 
  333400    2.9537748     8.392794    3.0444635    15.865704    11.751578 
  333600    2.9584768    8.4213281    3.0398345    15.896659    9.7904921 
  333800    3.0242234    8.3769614    2.9912269    15.902255    11.772211 
  334000    2.9689675    8.4338135     3.026895    15.911933    10.959678 
  334200    2.9917188    8.3819195    2.9970641    15.864318    11.569935 
  334400    2.9790173    8.4104348    2.9874024    15.864129    12.181076 
  334600     3.008512    8.4294487    3.0124438    15.952404    9.8209335 
  334800    2.9955195    8.4804628    3.0659558    16.037451     10.54075 
  335000    3.0336828    8.4201444    2.9700772     15.93847    10.983083 
  335200    3.0006163     8.399731    3.0819092    15.980314    11.566684 
  335400    2.9829501    8.4396165     3.096376     16.00818    10.142172 
  335600    3.0113009    8.4029677    3.0440753    15.961736    11.935564 
  335800       2.9598    8.4579334    3.0966694    15.992083    11.538995 
  336000    3.0525868    8.3794012    2.9918285     15.94782    11.370895 
  336200    3.0210851    8.3500022    3.0184887    15.897853    10.570298 
  336400    2.9483958    8.4070229    3.0068871    15.834292    10.440341 
  336600    2.9677571    8.4010967    3.0068358    15.857342     11.18289 
  336800    2.9550998    8.4155478    2.8720945    15.718076    11.971493 
  337000    3.0135881    8.3507328    2.9977321    15.866587    11.546903 
  337200     3.026518    8.4348568    2.9649794    15.937343    10.158331 
  337400    2.9734151    8.4222468    2.9190192    15.799158    11.854698 
  337600    3.0076158    8.4115064    3.0067103    15.927385    10.646611 
  337800    3.0134044    8.3617648    3.0490067    15.928618    11.003562 
  338000    2.9866568     8.374018    2.9925805    15.844344    11.007649 
  338200    2.9203199    8.4009208     3.065035    15.844245    8.9150332 
  338400     2.962279    8.3892315    2.9781128    15.808541    11.716551 
  338600    2.9359192    8.4310558    2.9558507    15.788583    11.726739 
  338800    2.9103426    8.3818105    3.0993713    15.844513    10.233456 
  339000    2.9125377    8.3840269    3.0317799    15.782429    10.811282 
  339200    2.9661038    8.4128399    2.9398617    15.799633    11.057344 
  339400    2.9636708    8.4341982    2.9207178    15.798199    10.734091 
  339600    3.0101248    8.4375109    2.8360215    15.786462    9.4385513 
  339800    2.9967466    8.4039938    2.9729673    15.869834      10.4361 
adapt lambda = 0.68 a0 = 2.04
  340000    3.0146943    8.4844487    3.0287805     16.03301    11.641623 
  340200    3.0512428    8.4437667    2.9653141    15.983657    9.8956544 
  340400    2.9908534    8.4432391    3.0018356    15.929112    11.037937 
  340600    3.0008029    8.3843561    2.9543077    15.837617    12.011089 
  340800    2.9649063    8.3833125    2.9053522      15.7338    10.292896 
  341000    2.9486669    8.4182926    2.9330595    15.772141    11.155348 
  341200     2.857117    8.4365241    2.9631583    15.683215    11.308676 
  341400    2.8902068    8.4371353    2.8921143    15.662392    11.275921 
  341600     2.942926    8.3747963    2.9451977    15.732176    11.413413 
  341800    2.9072883     8.401466    2.9744667    15.734685    13.031424 
  342000    2.9107885    8.4522168    2.9379611    15.754178     8.717168 
  342200    2.9939833    8.4467312    2.8173286    15.752789     10.75729 
  342400    3.0119357     8.457055    2.9271376    15.899837    9.9676454 
  342600     2.977808    8.4127926      2.99233    15.869601     11.19111 
  342800    2.9956255    8.3750807    2.9237598    15.790032    11.262268 
  343000    2.9691631    8.4361716    2.9688446    15.856534    10.596114 
  343200    2.9769292    8.3909858    2.9837429     15.83789    11.037835 
  343400    3.0781912    8.4166312    3.0249094    16.056519    10.836871 
  343600    3.0248724    8.4814573    3.0212153    16.037713    12.242345 
  343800    3.0335663    8.4188922     3.071543    16.038509    11.541211 
  344000    3.0361633    8.4165268    3.0561239    16.024618    11.467334 
  344200    3.0092649    8.3831618    3.0337209    15.928523    10.407507 
  344400    3.0491875    8.4023067    3.0789633    16.052764    11.316419 
  344600    2.9700452    8.4472712     3.004685    15.904797     10.36027 
  344800    2.9521971    8.4240681    2.9912019    15.841351    10.749371 
  345000    2.9746535    8.4411203    3.0054126    15.906282    12.245638 
  345200    3.1305933     8.431365    2.9221457    16.047053    9.3357033 
  345400    3.0210138    8.4823052    3.0367432    16.048303    11.745477 
  345600    2.9798969    8.4241105    3.0173523    15.909073    10.285765 
  345800    3.0029926    8.4726234    3.0497881    16.024648    10.136708 
  346000    3.0120788    8.4295375    3.0548311    16.000228    11.770806 
  346200    2.9974222    8.4164063    3.0785606    15.988852    10.111263 
  346400    3.0645171    8.3974846    3.0044169    15.996379    10.892851 
  346600    3.0112663    8.4272202    3.0859645    16.027826    9.1653567 
  346800    3.0565788    8.4036301    3.0287172    16.014923    11.140737 
  347000     3.068031    8.4313191    2.9967289    16.027793    11.866617 
  347200    3.1009788    8.4458603    2.9193754    16.014378    10.466306 
  347400    3.0314384    8.4415281     2.922924    15.909336    10.751162 
  347600    2.9892696    8.4914339    2.8882316    15.861328    11.233246 
  347800    3.0295533    8.4024467    2.9328302    15.877335    10.649234 
  348000    2.9527017    8.4684757    3.0400855    15.935399    10.997414 
  348200    2.9627513    8.4510956     3.018031    15.911032    11.148904 
  348400    2.9715179    8.4172323    2.9716901    15.843971    11.698685 
  348600    2.9633543    8.3960991    3.0538512    15.892759    9.9365971 
  348800     2.883862    8.4293776    3.0187516    15.771759     9.236837 
  349000    3.0131511    8.3591813    3.0249692    15.901617    11.667994 
  349200    2.9001194    8.3848077    3.0836885      15.8165    10.328695 
  349400    3.0042518    8.4111503    2.9604468    15.875722    10.401769 
  349600     2.940795    8.3857334    3.0370239    15.831744    12.177178 
  349800    2.9551904    8.4209136    3.0208908    15.872374    10.989099 
adapt lambda = 0.7 a0 = 2.1
  350000     2.915645    8.3896449    3.0017939     15.76272    10.538596 
  350200    2.9992294    8.4532095    2.9048695    15.854674    10.027669 
  350400    3.0265259    8.4156279    2.9419879    15.895135    10.066234 
  350600    3.0793129    8.4114127    2.9238403    15.951913    10.625273 
  350800    2.9665113    8.4099876    2.9514191    15.808949    11.678575 
  351000    2.9883012    8.3864137    2.9908967    15.857521    11.530853 
  351200    3.0394136     8.381897    2.8557197    15.794458    10.012957 
  351400    2.9878885    8.4251302    3.0126337    15.917356    10.211369 
  351600    3.0276945      8.37379    3.0076922    15.920753      11.2447 
  351800    3.0003566    8.3631936     3.099711    15.961189    11.910488 
  352000    3.0000023    8.3955272    3.0875304    15.980811    12.402341 
  352200    2.9648321     8.392808    3.0142188    15.852051     11.12714 
  352400    2.9790196    8.4233524      2.97638    15.866027    9.7510342 
  352600    2.9634452    8.4526216    2.9222082    15.817775    11.593415 
  352800    2.9613248    8.4265937     2.936225    15.802585    10.915429 
  353000    2.9906543    8.3943429    2.9538273    15.831909    9.8440894 
  353200    2.9541065     8.389965    2.9158269    15.734736    11.062483 
  353400    2.9432429    8.3804058    2.9553796    15.748442    11.605816 
  353600    2.9829455    8.4086524    2.9859074    15.866741     10.81398 
  353800    3.0121617    8.4273799    2.9841284    15.927492    12.499976 
  354000    2.9627507    8.4565336    3.1169107    16.015348    10.093309 
  354200    3.0594895    8.3735777    2.9914121    15.951929    11.022014 
  354400    3.0023503    8.3786348    3.0372095    15.917118     11.10363 
  354600    2.9457109    8.3956908    3.0400916    15.852139    10.244609 
  354800    2.9078427    8.4229056     3.053828    15.836317     9.372533 
  355000    2.9235118    8.3872422    3.0255229     15.79584    10.349485 
  355200    2.9760012    8.3703964    3.0537553    15.885922     11.90065 
  355400    2.9544722    8.3892328    2.9909745      15.8097    10.166123 
  355600    2.9698951    8.4333402    2.9454507    15.831406    9.5012172 
  355800    3.0263709    8.4218016    2.9014673    15.860555    9.8366226 
  356000    3.0467858    8.4150801    3.0014969    15.984471    10.337698 
  356200    3.0745968    8.4555898    2.8713807     15.93656    10.826922 
  356400    3.0352408     8.437436    3.0143351    16.002356    10.758702 
  356600    3.0069025    8.4372991    3.0447829    15.990181    8.6937955 
  356800    2.9699493    8.3819373    3.0321281    15.866762    12.798453 
  357000    2.9551357    8.3836066    3.0580861     15.87218    10.264187 
  357200    2.9492506     8.427656    3.0027046    15.852025    11.383088 
  357400    3.0363889    8.3773648     2.922861    15.852532    9.7166919 
  357600    2.9486852    8.3966116    2.9550673    15.772495     10.27088 
  357800    3.0049892    8.3652356    3.0564957    15.926961    10.736169 
  358000     2.983531    8.4186662    3.0638619    15.955587    11.230785 
  358200    3.0566731    8.4151569    3.0045562     16.00243    11.568709 
  358400    3.0738244    8.4346651     3.143025    16.186121    10.626876 
  358600    3.0729874    8.4233092    3.0871459    16.117631    10.889649 
  358800    3.0839198    8.3737563     3.087338    16.084661     11.84844 
  359000     3.046861    8.4150907    3.0337536    16.016851    11.722908 
  359200    3.0379899    8.4423481    3.0661274    16.063182    11.160978 
  359400    3.1242511    8.3475195    2.9271691    15.958722    9.9469296 
  359600     2.954845    8.4668391    3.0907672    15.987658    10.673838 
  359800     2.999675    8.4367648    3.1242218    16.058249    12.844747 
adapt lambda = 0.72 a0 = 2.16
  360000    3.0366162    8.3805372    3.1462094    16.079393    11.303543 
  360200    2.9602873    8.4491566    3.0539924     15.94136    11.758198 
  360400    2.9560781    8.4249552    3.0150677    15.871923    12.268685 
  360600    2.9766589    8.4114431    3.0035943    15.877793    11.774782 
  360800    2.9905519    8.3575449    3.0474937    15.888623    12.533053 
  361000     2.911155    8.3715846     3.012052    15.748186    11.378059 
  361200    3.0704715    8.3765656    2.9864402     15.96641    12.063588 
  361400    2.9618547    8.4178381    3.0624674    15.920866    11.482388 
  361600    3.0310631    8.3480216    3.0483824    15.940725    11.221144 
  361800    2.9968509    8.4115874    3.0331058    15.937722    11.481519 
  362000    3.0644513    8.3903478    3.0919214    16.076648    12.836222 
  362200    3.1399285    8.3585068     3.029429    16.095474    10.080218 
  362400    3.0581688    8.4031766    3.0283525    16.016489     11.48737 
  362600    3.0317967    8.4053927    3.1054851    16.056299    9.7889597 
  362800    3.0476381    8.4351578    2.9993513     16.00368    9.9127519 
  363000    2.9620987    8.4242089    3.1840511    16.049186     11.21065 
  363200    3.0920153    8.3447225    2.9631698    15.943596    11.930008 
  363400    3.0348615    8.4173388    3.0600896    16.027444    11.343679 
  363600    3.0647829    8.4296905    3.0521223    16.076689    11.207854 
  363800    3.0328943    8.3994684    2.9773656    15.923901    11.525828 
  364000     2.987953    8.4070396    2.9974735    15.884202    12.123952 
  364200    3.0355738     8.384719    2.9897355    15.925539    10.046995 
  364400    3.0239181    8.3973931    2.8967995    15.827802    10.559778 
  364600    2.9262756    8.4192628    2.9867428    15.793224    11.428397 
  364800    2.9832551    8.4581888    2.9318563     15.86269    10.776526 
  365000    2.9370304    8.4348609    2.9380108    15.776214    10.421823 
  365200    2.9190921    8.4403284    2.9243356    15.741113    10.062664 
  365400    2.9682294    8.4463477    2.8596167    15.756082    11.153526 
  365600    2.8782705    8.4008738    3.0390922    15.755213    10.453953 
  365800    2.9662219    8.4204672    3.0187655    15.886341    10.838696 
  366000    2.9978969     8.401387    3.0721909    15.968175    10.994915 
  366200    3.0462005    8.4383433    2.9873181    15.992677    11.228878 
  366400    2.9443513    8.3962161    3.0674134    15.877948    11.314476 
  366600    3.0331621    8.4093678    2.9732615    15.930098    9.3764175 
  366800    2.9596995    8.4179048    3.1659999    16.021234    10.567711 
  367000    3.0538645    8.4298883    3.0479389    16.056334     11.38968 
  367200    3.0559421    8.4316683    2.9729883    15.986278    11.248328 
  367400    3.0051881    8.3839598    2.9904574    15.879945    10.403114 
  367600    2.9902311    8.4163763    2.8742883    15.773769    11.053888 
  367800    3.0049975    8.4161762    2.9059156    15.827334    11.632604 
  368000     2.952911    8.4541796    2.9320331    15.813365    10.580346 
  368200    2.9136446    8.4743369    2.9548137    15.797432    11.066549 
  368400    3.0454126    8.4661599    2.9022218    15.934216     10.77941 
  368600      2.98939    8.3819508    2.9871303    15.850924    9.9708272 
  368800    2.9957948    8.4118298    2.9310388    15.834314    10.601387 
  369000    2.9456698    8.4417361     3.016802    15.874833    11.201343 
  369200    3.0255067    8.4317817    2.9990228    15.966795    10.500562 
  369400     3.021249    8.4027389    3.0183685    15.950715    11.072396 
  369600    2.9896097    8.4455368    3.0608927    15.988602    12.508869 
  369800     3.039775    8.4438482    3.0168098    16.018041    12.091719 
adapt lambda = 0.74 a0 = 2.22
  370000    3.0387364    8.4209608    3.0025091    15.979296    11.293699 
  370200     3.027609    8.4054656    3.0306066    15.975215    11.254909 
  370400    3.1175375    8.4080694    2.8820208    15.964058    10.703128 
  370600    2.9889472    8.4509621    2.9918063    15.923947    9.9030991 
  370800    3.0248843     8.484484    2.9264485     15.94599     9.384144 
  371000    3.0631816    8.4445088    3.0041252    16.041109    11.202141 
  371200    2.9381501    8.4390061    3.0170507    15.861078    12.175473 
  371400    3.0852032    8.4743893      2.92419     16.02407    10.668793 
  371600     3.061382    8.4264411    2.9089537    15.925172    10.360078 
  371800    3.0757462    8.4314328    2.9531331    15.995878    11.334084 
  372000    3.0057613    8.4978978    2.8713234    15.875609    11.633288 
  372200    3.0085428    8.4230083    2.8619424    15.795508     11.02312 
  372400    2.9491693    8.4479124    2.8569796    15.726434    11.739104 
  372600     3.001578    8.3800062     2.968296    15.848418    11.008194 
  372800    2.9262518    8.4136783    3.0853028    15.886164    10.947743 
  373000    3.0411042    8.4072792    2.9598353     15.92649     11.00443 
  373200    3.0511888    8.4258553    2.9943109    15.994661     9.764455 
  373400    3.0376777    8.3773584    2.9715051    15.903102    10.064528 
  373600    3.0724679    8.3785548    3.0330332    16.017985    10.400399 
  373800    3.0565639    8.3637984    2.9686367    15.914988    11.216576 
  374000    3.0165447    8.3795126    3.0428841    15.944951    11.511558 
  374200    3.0635099    8.4087394    2.9579835     15.95969    10.716527 
  374400    2.9068565    8.4483243    3.0017031    15.808132    10.223239 
  374600    2.9655953    8.4547398    2.8734728    15.774381    11.258882 
  374800    2.9735674    8.4437117     2.911207     15.81304    9.6233042 
  375000    2.9855621     8.404955    2.8908618    15.771921    10.399249 
  375200    3.0404256    8.4209852    2.9358339    15.915177    9.4118639 
  375400    3.0402516    8.3955572     2.938064    15.891718    10.125797 
  375600    2.9938071    8.3820792    3.0687379    15.939282    11.505092 
  375800     3.027223    8.4120251    2.9531245    15.903714    10.675233 
  376000    3.0746174     8.393735    3.0983648     16.10172    10.631048 
  376200    3.0200763    8.3920983    3.1302617     16.05021    11.055126 
  376400    2.9783591    8.3951904    3.1715073    16.032003    10.926458 
  376600    3.0047364    8.3352997    3.0275375    15.867688    11.195666 
  376800    2.9586502    8.4139341    2.9393844    15.789075    10.896687 
  377000     3.018876    8.3699233    2.9330162    15.828989    12.102518 
  377200    2.9620939    8.3907064    2.8916258    15.723251    11.135067 
  377400    2.9503362    8.3836994    2.9601379    15.767129     11.49502 
  377600    2.9194626    8.4309082    2.8521992    15.660112    10.655062 
  377800    2.9813702    8.4283095    2.8493869    15.747516    9.5842162 
  378000    2.9222439    8.3985037    2.9936368    15.773315    11.247317 
  378200    2.9431275    8.4277083    3.0474734    15.887666    11.543551 
  378400    3.0017548    8.3477696    3.0610014    15.909152    10.367021 
  378600    3.0594255    8.3657352    2.9814347    15.934014    11.298315 
  378800    2.9693771    8.3764557    3.0577727    15.886067    12.155698 
  379000    3.0110274    8.4275998    2.9328553    15.874738    10.983722 
  379200    3.0808459    8.3677748    2.9338471     15.92058    11.851258 
  379400    3.0227961    8.4015782    2.9609775    15.894483    11.132402 
  379600    3.0304386    8.4029787     3.016289    15.962653    12.918238 
  379800    2.9739954    8.4038151    2.9663889    15.828967    11.047052 
adapt lambda = 0.76 a0 = 2.28
  380000    2.9431952    8.3875727    3.0406747    15.840833    10.406968 
  380200    3.0504031    8.3632145    3.0267493    15.963281    10.472937 
  380400     2.937812    8.4473473    3.0631712    15.915033    11.008805 
  380600    3.0161283    8.3987234    3.1113385    16.031992    12.107185 
  380800    3.0485996    8.4292728    3.0842561    16.084142    10.682269 
  381000    3.0872141    8.4046602    3.0225039     16.05567    10.851334 
  381200    3.0539546    8.4245508    2.9783765    15.981569    11.154384 
  381400    3.0646749    8.3892183    3.0416387    16.025571    9.6085116 
  381600    3.0232877    8.3835957    2.9794964    15.895756    11.146618 
  381800     2.982151    8.3967202    3.1001669    15.967877    11.140407 
  382000    3.0423954    8.3749038    2.9705564    15.906772    11.368831 
  382200    3.0027921    8.3705989    3.0169601    15.889495    12.119395 
  382400    3.0160081    8.3726979    3.0028413    15.897289    10.976201 
  382600    2.9809361    8.3929558    3.0426327    15.904757    10.907743 
  382800    3.0757681    8.3988276    2.9064601    15.916633    10.613592 
  383000    3.0769636    8.3933747    2.9696429    15.976155    11.672348 
  383200    3.0385594    8.4391847    3.0096805    16.004425    10.030158 
  383400    3.0082786    8.3850662    2.9421917     15.83742    11.946968 
  383600    3.0392309    8.3716575    3.0310057     15.95923    11.079821 
  383800    3.0207393    8.3643962    3.0305581    15.923798    11.104618 
  384000       3.0569    8.4224707     3.003928    16.009456    11.878208 
  384200     3.019688    8.4182384    3.0247035    15.970209    11.335321 
  384400     2.976205    8.4195669    3.0163904    15.898033    10.753785 
  384600    2.9631017    8.4104596    3.0336405     15.88653    10.944946 
  384800    3.0580941    8.3841223    3.0369279    16.005898     12.75873 
  385000    3.0301841    8.4060814     3.046111    15.995196    11.480882 
  385200    3.0745002    8.3431472    3.1194804    16.072072    10.733511 
  385400     2.998997    8.3647675    3.1590149    16.020029    12.248446 
  385600    2.9773541    8.4432217    2.9742482    15.881268    10.456095 
  385800    2.9402008    8.3569447    3.0876105    15.852651    9.4022113 
  386000    3.0403564    8.3422107     2.926264    15.826729    12.222509 
  386200    2.9525203    8.3552145    3.0488796     15.83066    10.836479 
  386400    2.9416182    8.4675946    3.0573541     15.93517    12.101464 
  386600    2.9709974    8.4520281    2.9668023    15.873098    10.304578 
  386800     2.972499    8.3941745    3.0925971    15.943291    8.8041541 
  387000    3.0240377     8.430262    2.8849058    15.848956    11.677758 
  387200     2.959574    8.4322204    2.9087607    15.778122    12.500658 
  387400    2.9239167    8.4781011    2.9119617    15.773745    11.010261 
  387600    2.9414062    8.4614172     2.861406    15.732727    10.707571 
  387800    2.9671284    8.3609111    2.9586937    15.768072    9.1973962 
  388000    3.0291026    8.3580401    2.9274875     15.82691    11.495268 
  388200    2.9412422    8.4159008    2.9142159    15.739774    10.860731 
  388400     2.899173    8.4096991    2.9618179    15.718102    11.746642 
  388600    2.8687849    8.3848156    2.9661553    15.651997     11.55944 
  388800    2.8991099      8.44167    2.8973119    15.685472     10.46873 
  389000    2.9280293    8.3554211    2.9817138    15.726983      11.1205 
  389200    2.9319704    8.3785835    3.0007174    15.775058    12.687579 
  389400    2.8771364     8.381114    3.0003751    15.695036    11.659876 
  389600    2.8699798    8.4162236    3.0124499    15.731491    11.316634 
  389800     2.926756    8.3563491     3.009733    15.754021    11.904402 
adapt lambda = 0.78 a0 = 2.34
  390000    2.9537735    8.4271207    3.0337125    15.889278    10.574049 
  390200    2.9546333    8.4054554    3.0005028    15.835692    11.091577 
  390400    2.9713765     8.400397    2.9627335    15.817967    10.283397 
  390600    3.0093392    8.4509306    2.8865426    15.849225    11.684603 
  390800    2.9938784     8.432526     2.916626    15.837724    11.310179 
  391000    3.0137266    8.4503459    2.9498204    15.918496    11.389744 
  391200    3.0009966    8.4491073    3.0554632    16.003815    10.598075 
  391400     3.072167    8.4514251    2.9447925    16.002164    11.953445 
  391600    3.0481939    8.4710041    2.9629784    16.003987    12.136736 
  391800    3.0456288    8.4386776    3.0677338     16.07257    10.455724 
  392000    3.1220867    8.4132887    3.0316633    16.125741    11.245602 
  392200    2.9462572    8.4323692    3.0480459    15.897591    11.420435 
  392400    3.0039803    8.4147392    3.1497484    16.068205    10.350834 
  392600    3.0240627    8.4390586    2.9116585    15.884543    10.601995 
  392800    2.9690699     8.397456    2.9911949    15.840029     9.656765 
  393000     3.001484    8.4852172    3.0128193    15.998011    10.365377 
  393200    3.0236371     8.422565    2.9973501    15.953103    11.019724 
  393400    2.9707979    8.4506428    2.9821784     15.88679     10.41769 
  393600    2.8992029    8.4241733    2.9921909    15.762994    10.641876 
  393800    2.8337217    8.4728365    3.0101816    15.731475    11.111602 
  394000    2.9243161    8.4406725    2.9673077    15.792261    12.202743 
  394200     3.061597    8.4090006    2.9263714    15.925471    10.503578 
  394400    2.9137912    8.4512394     2.989228    15.808969    11.976527 
  394600    2.9992671    8.3671658    2.9362882    15.800105    10.917323 
  394800    2.9528902    8.3840642     3.013099    15.824284    10.453052 
  395000    2.8824798    8.3946453    3.0491751    15.765378    9.9348476 
  395200    3.0622039    8.3853929    2.9387212    15.915123    9.8597883 
  395400    2.9819807    8.4373026    2.9458254    15.853863    10.216265 
  395600    3.0789075    8.4313193    2.9096443    15.957016    11.093808 
  395800    2.9718672    8.4279525    2.9345328    15.818057     10.12014 
  396000    2.9476213    8.4219016    2.9875852    15.828708    11.355465 
  396200    3.0003811    8.3823402    2.9056793    15.786341      10.9486 
  396400    3.0932249    8.3547269    2.9345459     15.92679    10.750631 
  396600    3.0806725     8.431172    3.0022331    16.052103    10.959751 
  396800    3.0371014    8.4166747    3.0165398    15.986589    9.5636468 
  397000    3.0739893     8.454819    3.0379386    16.101436    11.582211 
  397200     3.076854    8.3998117    3.0661247     16.07891    11.841138 
  397400    3.0359019    8.3922715    3.0386749    15.982522    10.287117 
  397600    3.0299829    8.3805953    3.0182325     15.94153    10.363784 
  397800    3.0489682    8.3989446    3.0416971    16.011807    12.003827 
  398000    3.0554171    8.3916136    3.1008711    16.073319    10.652006 
  398200    3.0481613    8.3654935    3.0038775    15.939327     9.934561 
  398400    3.0164689    8.4252758    2.9943264    15.942043    11.680202 
  398600    3.0320121    8.3759241    3.0677896    15.989458    10.703229 
  398800    3.0027514    8.3966361    3.0269385     15.92545    11.152329 
  399000    2.9323117    8.4467882    2.9651311    15.808188    10.573874 
  399200    2.9840717    8.4657628    3.0726209    16.012253    10.196457 
  399400    3.0253774    8.3930008     2.987706    15.916504    10.931151 
  399600    3.0533006    8.4784723    3.0698869     16.12602    10.184556 
  399800    3.1713594    8.4113279     3.044546    16.210534    11.478779 
adapt lambda = 0.8 a0 = 2.4
  400000    3.0869827    8.3928384    3.0615322    16.082529    10.055115 
  400200    3.0909288    8.3915343    3.0962925    16.121902     11.19092 
  400400    3.0443871    8.4562068    3.0545887    16.075093    10.195331 
  400600    3.0571006    8.4069665    3.0403959     16.03072    11.424476 
  400800    3.0326819    8.4464371    2.9653658    15.958551    12.008293 
  401000    2.9725758    8.4601545    2.9816596    15.898448    10.844276 
  401200    3.0115159    8.4479102    2.9745205    15.937446    10.704799 
  401400    2.9540404    8.4652932    3.0192847    15.913423    10.323741 
  401600     2.978788    8.4573586    2.9273713    15.850678    9.8999295 
  401800    2.9596506    8.4191411     2.907449    15.763846    10.812496 
  402000    2.9351261    8.4354049    2.8915938    15.727487    11.011706 
  402200    2.8980452    8.4671449     3.037373    15.849412    9.3468905 
  402400    2.9540075    8.4429049     3.075914    15.947615    10.371998 
  402600    2.9831521    8.4029625    3.1054881    15.980941    11.463163 
  402800     3.005272    8.4235454    3.0513925    15.980592    10.084912 
  403000    2.9683606    8.4358038    3.0237586    15.909877     10.53041 
  403200    2.9134182    8.4301365    3.0736554    15.871734    10.430454 
  403400    2.9906563    8.3739452    3.0985658    15.956252    10.620153 
  403600    2.9209534    8.4258822    2.9707275    15.775849    10.590915 
  403800    2.9907717    8.3303311    2.9410376    15.755283    10.737676 
  404000    2.9774291    8.3694011    2.9983318    15.831643    10.940501 
  404200    3.0553387    8.4037139    2.9103236    15.894754      10.7751 
  404400    3.0529738    8.3537675    2.9754064    15.906345    10.064205 
  404600    2.9792855    8.4473709    2.9485689    15.862634    9.5023478 
  404800    2.9897419    8.3879274    3.0280441    15.898342    11.069549 
  405000     3.011863    8.3872841    3.0139743    15.916794     9.802364 
  405200    3.0534484    8.3895137    3.0707932    16.038189    10.091004 
  405400    3.0390218    8.4553437    3.0624623     16.07406    11.977285 
  405600    3.0208027    8.4143887    3.0577146    16.001042    9.3739046 
  405800     2.962326    8.4580836    3.0199343    15.919285    10.970919 
  406000     3.023715    8.4381941    3.0029985    15.974497    11.223212 
  406200    2.9561357    8.3948981    3.1451902    15.972075    11.252731 
  406400    2.9963648    8.4256932    3.0369398    15.954933    11.963928 
  406600      2.98107    8.3643406    3.0715584    15.905268     12.31298 
  406800    2.9324762    8.3910444    3.1042202     15.89178    9.6643438 
  407000    3.0400412     8.386935    2.9902807    15.934998    10.616694 
  407200    3.0131378     8.474337    2.8659419    15.857726    10.710851 
  407400    3.0270543    8.4324878    2.9918371    15.962636    11.137431 
  407600    2.9675057    8.4904998    3.0484375     15.98797    10.926569 
  407800    2.9206094    8.4722689    2.9778327    15.828825    11.284031 
  408000    2.9386115    8.4456556    2.9722909     15.82366    11.489854 
  408200     2.918924    8.4088462    3.0834011    15.868444    11.349512 
  408400    3.0359259    8.3867033    3.0642467    16.002562    10.487641 
  408600    3.0702286    8.4140991    2.9909506     16.00809    10.950907 
  408800    2.9744379    8.4392622    3.0712569    15.969945    12.300482 
  409000    2.9715396    8.4144324    3.0198898    15.889403    11.643276 
  409200    2.9588277    8.4418783    2.9508916    15.828792    10.566082 
  409400    2.9511184    8.4129798    3.1051207    15.942565    10.467254 
  409600    3.0542492    8.3496986    3.0402155    15.968997     10.71342 
  409800    3.0241199    8.4454575    2.9836009     15.96297    10.410891 
adapt lambda = 0.82 a0 = 2.46
  410000    3.0075777    8.4132419    3.0554728    15.977826    11.147885 
  410200     3.088734    8.3802807    3.0256559    16.036721    11.561278 
  410400    3.0694716    8.4600826    3.0299717     16.09196    11.194941 
  410600    3.0789235    8.4807602    3.0362359    16.133072    10.198626 
  410800    3.0511431    8.4584182    3.0471728    16.080017    9.3739848 
  411000    3.0304857    8.4179734    2.9980782    15.959507     10.57823 
  411200    3.0066714    8.4094135    2.9681578    15.885323     10.81951 
  411400    2.9273186    8.3939952    3.0766572    15.859435     11.24303 
  411600    2.9333365    8.4090082    2.9910957    15.797909    10.737273 
  411800    2.9618473     8.413074     2.998154    15.851778    11.864234 
  412000    3.0351825    8.4046769    2.9889493    15.944124    10.347468 
  412200    3.0121651    8.4162493    3.1280326     16.06027    12.086668 
  412400    3.0370995    8.4404516    3.0100721    16.003895    11.739696 
  412600    3.0650307    8.3389417    3.0280846    15.962274    10.565432 
  412800    3.0240335     8.370399    3.0419197    15.946101    11.447191 
  413000    2.9224653    8.3893771     3.155948    15.926831    12.088283 
  413200    2.9632798      8.41619    3.1251177    15.984005    10.676698 
  413400    3.0074043    8.4000773    3.1395469    16.048475    10.369407 
  413600    3.0419048    8.4363036    3.0296464    16.026526    12.010319 
  413800    2.9737639    8.4861917    3.0531166    15.997724    10.900802 
  414000    3.0581676    8.3694355    3.0975948    16.051988    10.319612 
  414200    3.0668651    8.3818787    3.0484321    16.028308    11.968575 
  414400    3.0588418    8.4203515    3.0149235    16.021243     9.948418 
  414600    3.0478388    8.4505969    3.0359755    16.056045    10.829667 
  414800    3.0491984     8.398983    2.9591438    15.929637      12.6742 
  415000    3.0482812    8.4886228    2.9528773    16.011636    9.7773678 
  415200    3.0290817    8.4220758    2.9198025    15.883229    10.694385 
  415400    3.0176435    8.4326983    3.0401844    15.997085    9.9370162 
  415600    3.1033969    8.3828762    2.9137646    15.949409    10.543863 
  415800    3.0128249    8.4051938     3.106635    16.028806     11.16387 
  416000    3.0731896     8.384668      2.97409    15.966237     11.50383 
  416200    3.0745877    8.4212962    2.8846085     15.91548    10.576484 
  416400    3.0245399    8.3989654    3.0290964    15.962603    9.8248977 
  416600    2.9835829    8.4152905     3.077589    15.966016    10.696089 
  416800    2.9645198     8.403443    3.0098892    15.857888    11.364334 
  417000     2.900027    8.4379181    3.0286218    15.814405     10.89152 
  417200    2.9661727    8.4245475    2.9847633    15.856345     12.46426 
  417400    2.9292588    8.4054536    2.9707127    15.767858    10.518529 
  417600    3.0309512    8.4004489    2.9905912    15.935194    11.291916 
  417800    3.0330881    8.4281009    2.9510236    15.926482    10.332854 
  418000    3.0369706     8.444303    3.0651722    16.062653    11.721686 
  418200    3.0639066    8.4107016    3.0233217    16.027585    12.097503 
  418400     3.000993    8.3755854    2.9726668    15.847491    10.599543 
  418600    2.9396072    8.3636766    3.0272537    15.798136    10.249405 
  418800    2.9375289    8.4022226    2.9274276     15.73374    11.392854 
  419000    3.0126082    8.3649195    3.0365546    15.918127    11.561024 
  419200    3.0035481    8.3828178    2.9209878    15.806875    12.279132 
  419400    2.9891673    8.3916892    2.9527412    15.825939    10.592612 
  419600    2.9731936    8.4025258    2.9519531    15.812039    12.391915 
  419800    2.9948055    8.3890305    2.9555566    15.834549    12.350017 
adapt lambda = 0.84 a0 = 2.52
  420000    2.8749822    8.4480212    2.9837988    15.742137    9.9530622 
  420200     2.914743    8.4077106    2.9671377    15.744777    10.815214 
  420400    2.9211413    8.3902801    2.9471541    15.716955    11.940515 
  420600    2.9417152    8.4043665    2.9728857    15.787619    10.904951 
  420800    2.9475524    8.4335876    2.9572103    15.809916    10.691446 
  421000    2.9554085    8.4533127    3.0918388    15.976048    10.654137 
  421200    2.9572221    8.3913448    3.0420441    15.867004    12.754361 
  421400    2.9619931    8.4730332    2.9381262    15.851928    11.646466 
  421600    2.9727676    8.4191761    2.9479735    15.824071     12.02562 
  421800    2.9658418    8.3966679    2.9702989    15.813505    12.463206 
  422000    2.9837004    8.4119007    2.9513061     15.83652    11.394585 
  422200    3.0121242    8.3722742    2.9725672    15.860769    11.374471 
  422400    2.9221471    8.4523951    3.0029927    15.836417     10.54094 
  422600    3.0161896    8.4642415    3.0347432    16.021007    11.727586 
  422800    3.0069886    8.4731132    3.0886558    16.069997      11.3543 
  423000    2.9924731    8.4534001    3.1352136    16.075079    12.326785 
  423200      3.03558    8.3869319    3.0598824    15.997908    11.495608 
  423400    3.0403498    8.4270677    3.1261009    16.111413    10.721147 
  423600    3.0236934    8.4228986    3.0609871    16.017158     10.12423 
  423800    3.0508109    8.4378742    3.0459234    16.057726    11.922109 
  424000    2.9727632    8.4341974    3.1013855    15.992498     10.39996 
  424200    2.9994673    8.4096226    2.9534514    15.860025    11.843973 
  424400    2.8920574    8.4049806    3.0044166    15.745314     11.14154 
  424600    2.9171332     8.421343    2.9436489    15.738504    10.211316 
  424800    2.9148212    8.4053979    2.9326322    15.708076    11.575511 
  425000    2.9063355    8.3619686    2.9875881     15.70688     11.44357 
  425200    2.9812162    8.3754131    2.9066102    15.751612    11.627708 
  425400    2.8391774     8.428321    3.1141178    15.799075    11.047232 
  425600    2.9593586     8.355307    3.0269958    15.819121     11.28614 
  425800    2.9140021    8.3844348    3.0212372     15.77449    10.661348 
  426000    2.9149478    8.4493075    2.9280542    15.747597     12.68801 
  426200    2.9778939    8.4027468    2.9574012    15.824756    11.724266 
  426400    2.9182252    8.4319497    3.0393365    15.846435    9.3214189 
  426600    2.9795103    8.3999582    3.0437928    15.910782    10.464296 
  426800    2.9635609    8.4159379    3.0056599    15.864716    10.913051 
  427000    3.0150765    8.4013454     3.008562    15.930261    11.277311 
  427200    2.9761348    8.4373855    3.0192969    15.918653    9.7756085 
  427400    2.9311152    8.4715537    2.9946017     15.86063    11.298655 
  427600    3.0539349    8.3948865    2.9127719     15.88627     10.85824 
  427800    2.9685258    8.4931005    2.9754041    15.919067    11.164506 
  428000     2.939771    8.4715424    3.0919601    15.970954    11.137987 
  428200    3.0743542     8.436424    2.9001357    15.945785    11.856659 
  428400    2.9794595    8.4419131     2.984818    15.893686    10.318811 
  428600    2.9624507      8.41349     3.115499    15.970443    10.367136 
  428800    3.0205345    8.4050823    3.0593035    15.992922    11.348787 
  429000    2.9898703    8.3763961     3.005405    15.864364    11.413142 
  429200    3.0333757    8.3637941    3.0049527    15.916535     9.499492 
  429400    2.9191314    8.4019958    2.9780847    15.756588    11.026988 
  429600     3.013416     8.373971    2.8522159    15.744051    11.403476 
  429800    2.8720037     8.438306     3.002558    15.746715    10.507179 
adapt lambda = 0.86 a0 = 2.58
  430000    2.9802934    8.3794305    2.9761879    15.823823    11.839166 
  430200    3.0201991    8.3659935    3.0385006    15.932528    9.5628778 
  430400    2.9558817    8.4247234    2.8815505    15.737879    10.468405 
  430600    2.9730728    8.4070442    2.9590109    15.823434     10.17937 
  430800     2.965836      8.38216    2.9543493    15.783039    10.112843 
  431000     2.906011    8.3911828    2.9686472    15.716667    10.285205 
  431200    2.9614717    8.3717623    2.9367889    15.748538    12.445272 
  431400    2.9675558    8.4072599    2.9185469    15.774915    11.226513 
  431600    2.9553421    8.4133218     2.936977    15.781096    11.432283 
  431800    2.9966672    8.3904311    2.9729522    15.856137    9.6621474 
  432000    2.9108688    8.4256116    2.9807752    15.770507    11.125255 
  432200     2.962756    8.4563767    2.8437743    15.742063    11.365778 
  432400    2.9760968    8.3778884    2.9026453    15.742447    10.340918 
  432600    3.0198384    8.4137849    2.9798443    15.921122    10.813135 
  432800    3.0231498    8.4433836    3.0198099    15.995651    12.867593 
  433000    3.0119447    8.4023397    2.9870561    15.905054    11.677521 
  433200    2.9160061    8.4291613    2.9739898    15.774973    10.059872 
  433400    2.9861209    8.3833931    2.9421683    15.802503    11.350414 
  433600    2.9838722    8.4788409    2.9067744    15.859186     9.220239 
  433800    2.9878191    8.4385209    3.0143735    15.932382    10.247756 
  434000    2.9879377     8.493875    3.0010089    15.974549    10.697832 
  434200     3.080459    8.4325902    3.0140639    16.065032    10.333843 
  434400     3.020162    8.4523052    3.0445787    16.024862    11.571698 
  434600    3.0803214    8.4589351    2.9467038    16.023811    9.1275775 
  434800    3.0217661    8.5012041       2.9769    16.008487    13.069995 
  435000    3.0249556    8.4650005    3.0000332    16.000198    11.575988 
  435200    3.0525858    8.4067591    2.9974885    15.980837    10.694244 
  435400    3.0323019    8.3950842     3.021995    15.963258    11.391529 
  435600    3.0506726    8.4746834    2.9870984    16.035503    11.035834 
  435800    3.0415437    8.4562224    3.0043446    16.020601    11.287527 
  436000    3.0235889     8.464981    2.9858432     15.98394    10.656712 
  436200    3.0856523     8.430547    2.8300246    15.886736    13.093445 
  436400    3.0754156    8.4285014    2.9673337    16.006652    12.388403 
  436600    3.0320039    8.4205716    2.9966021    15.962906    10.255877 
  436800    2.9994557    8.3168194    2.9353127    15.749066    11.219336 
  437000    2.9107385    8.4056487    2.9545196    15.724093    11.038739 
  437200    2.9421584    8.4410469    2.9449256    15.797004    11.243646 
  437400    2.9450482    8.4361284    2.9787551    15.830247    10.856814 
  437600    2.9969379    8.4106332    3.0452918    15.949084    11.188371 
  437800    2.9790674    8.4264511    3.0962421     15.98906    11.675783 
  438000    3.0358042    8.3669291    3.0247779    15.943136    10.564001 
  438200    2.9392589    8.4394766    3.0430046    15.889165    11.844735 
  438400    2.9880485    8.4519662     2.967791    15.899589    12.054432 
  438600    3.0275913     8.473204    2.8762882    15.888608    11.274673 
  438800    3.0421093    8.4533749    2.9784013    15.992659    10.414686 
  439000    3.0726381    8.4241665    2.9039162    15.934735    12.889657 
  439200    3.0226715    8.4370533    2.9838225    15.952616    10.736934 
  439400    3.0473595    8.4545272     3.045155    16.068436    10.738844 
  439600    2.9025714    8.4377691     2.960858    15.750307    11.835011 
  439800    2.9879463    8.3988813    2.9156741    15.794234    11.355172 
adapt lambda = 0.88 a0 = 2.64
  440000    2.9209062    8.4008099    2.9185894    15.698568    10.915111 
  440200     3.042392    8.4161196    2.8631942     15.84062    11.438705 
  440400    2.9975714    8.4412838    3.0381979    15.973591    11.145605 
  440600    3.0472719    8.4295964    2.9971272    15.995346     11.92238 
  440800    3.0149764    8.4712934    3.0728537     16.06435     11.31123 
  441000    3.0229331    8.4552016    3.0694875    16.056822     10.85322 
  441200    2.9463811    8.4076542    3.0402325    15.865248     11.28191 
  441400    3.0300771    8.3624532    3.0806754    15.985972    12.158903 
  441600    3.0386604    8.3747339    3.0482323    15.978678    11.278914 
  441800    3.0188322    8.4317935    2.9493098    15.907087    11.851119 
  442000     2.989475     8.393555    3.0122013    15.887727    12.419821 
  442200    3.0504599    8.4171287    2.9270351    15.917566    11.168511 
  442400    3.0526981    8.3875647     2.934372    15.898694      10.5595 
  442600    2.9841417    8.4429715    2.9097187    15.826665    12.023103 
  442800    2.9886573    8.3923776    2.8407615    15.713884    11.922981 
  443000    2.9343966    8.4150344    2.9131912     15.72762    10.755952 
  443200    2.9163121    8.4158815    2.9554964    15.743659    11.175025 
  443400    2.9793019    8.3552734    3.0423919    15.864384    10.886149 
  443600    2.9973101    8.3996539     2.956261    15.849632    11.968551 
  443800    3.0481378      8.40759    3.0129919    15.990503    9.2494649 
  444000    3.0184803    8.4588628    2.9229455    15.907265    10.188449 
  444200     3.030682     8.431385    2.9757871    15.950922     10.15969 
  444400    2.9821177    8.4710209    3.0798275    16.021788    10.223512 
  444600     3.060411    8.3877431    3.0991793    16.075244    9.9451895 
  444800    3.0891567    8.4016741    3.0830114    16.116104    11.599818 
  445000    3.0232938    8.3853064    3.1009168    16.018897    10.662925 
  445200     3.057621    8.3948866    3.1023341    16.081359    10.179923 
  445400    3.0948852    8.4034583    3.1376328    16.181098    11.254024 
  445600    3.0479011    8.4029564    2.9832508    15.955773    11.863271 
  445800    2.9775681    8.3844489    3.0435006    15.892068    9.8276799 
  446000    2.9546552    8.4431296    3.0041804    15.877077    10.450767 
  446200    3.0472841    8.3902745    2.9918242    15.950739    11.168637 
  446400    2.9985869    8.4342724    3.1403737    16.070277     12.37228 
  446600    3.0394141    8.4368254     2.991113     15.98478    11.853385 
  446800    2.9845227    8.4044378    2.9571636    15.836147     11.03226 
  447000    2.8249439    8.4270804    3.0247751    15.687153    12.242169 
  447200    2.8707739    8.3885915    3.0470949    15.739694    9.9955757 
  447400     2.956087    8.3991075    3.0106453    15.841666    11.595094 
  447600    3.0250222     8.391227    2.9980129    15.924504    10.107513 
  447800    3.0195246    8.3969549    2.9116854    15.835663    10.279342 
  448000    2.8835201    8.3956325    3.0325726    15.751323    11.403946 
  448200     3.052081    8.3784962    2.9241991    15.878528    12.607743 
  448400    2.9661032    8.3761763    2.9239313    15.747038     11.28024 
  448600    2.9360802    8.3676456    2.9242793    15.693843    10.777956 
  448800    2.8956782    8.4480013    2.9141617    15.703509    12.193481 
  449000    2.9047595    8.3756197    2.9560559    15.686636    10.873912 
  449200    2.9763003    8.4760831    2.8960509    15.834352    11.587227 
  449400    2.9945953    8.3981495    2.9158133     15.80361    11.389232 
  449600    2.9297573    8.4644262    2.9409024    15.797767    11.942262 
  449800    3.0524957    8.4321875    2.7978003    15.806442    10.795275 
adapt lambda = 0.9 a0 = 2.7
  450000    2.9410428    8.4470321    2.9552639    15.811655    11.225377 
  450200    2.9302576    8.4453224    3.0796164    15.918127    12.100394 
  450400    3.0710401    8.4259422    2.9876068    16.017806    10.502321 
  450600    2.9715512    8.4017136     3.131429    15.988241    10.553705 
  450800    3.0816766    8.4303915     3.024966    16.075561    11.054967 
  451000    3.0072702    8.5159799    3.0206556    16.045285    11.131184 
  451200    3.0365665    8.4415825    3.0762606    16.070415    11.186552 
  451400    3.0518171    8.3951423    3.0508014     16.02138    10.678043 
  451600    3.0511933    8.3849619    3.0373975    15.996861    10.609903 
  451800    3.0128335    8.4736512    3.0160878     16.00673    11.747693 
  452000     3.011524    8.4184296    3.0293712    15.962828    10.521843 
  452200    2.9718551    8.4152899    3.0371843    15.908028    11.650075 
  452400    3.0385143    8.4019374    3.0997654    16.057195    10.503114 
  452600    3.0637016    8.4417978    3.0270361    16.062089    12.831153 
  452800     3.028169    8.4231765    3.0744488    16.037608    11.076578 
  453000    2.9931676    8.4939543     3.111539       16.093    10.618807 
  453200    3.1264968    8.3987471    3.0578736    16.144021    9.9537234 
  453400    3.0918672    8.4246402     3.010228     16.07035    10.485026 
  453600    3.0275355    8.4288285    3.0871832    16.055044    12.017418 
  453800    3.0574741    8.4313243    3.0878961    16.103138    11.044401 
  454000    2.9646506    8.4457008    3.1247029    16.015156    12.667264 
  454200    3.0928752     8.438233    3.0174193    16.092645    10.351459 
  454400    3.0362928    8.4397116     3.132442    16.124315    11.121937 
  454600     2.978818    8.4504263    3.1249719    16.041391    10.712554 
  454800    2.9933191    8.4469835    3.1498897    16.084607    11.016742 
  455000     3.003981    8.4256053    3.0385965     15.96792    9.8934416 
  455200    2.9380798    8.4447095    3.0022387    15.851864    11.289476 
  455400    2.9425188    8.4885606     2.985231    15.885363    9.4202868 
  455600    3.0428072    8.4240039    2.9132035    15.899136    11.015346 
  455800    2.9532276    8.4827491    3.0316426    15.942018    8.9603125 
  456000    3.0260673    8.3943348    2.9754767    15.906643    10.473696 
  456200    2.9884305    8.4032779     2.926591    15.810273    11.915068 
  456400    2.9204465    8.4400242    2.9125304    15.731034    10.912014 
  456600    3.0004506    8.3902129    2.8735919     15.76223    13.229689 
  456800    3.0079849    8.4236415    2.9222016    15.855565    11.147804 
  457000    3.1027253    8.4633449    2.9103083    16.025414    12.315608 
  457200     3.048657    8.4301428    2.9585866    15.959428    10.610919 
  457400    3.0057518    8.3934878    2.9556746    15.855536    11.109374 
  457600     3.021519    8.4580308    2.9864852    15.974528    10.976497 
  457800    3.0235739    8.4512084    2.9773545    15.961656    10.179024 
  458000    3.0482113    8.4365201    3.0069377    16.013489    11.013346 
  458200    3.0319794    8.4404183    3.0408483    16.026962    11.619394 
  458400    2.9549797    8.4635428    3.0221508    15.915947    10.503493 
  458600    2.9419292    8.4311738    3.0011965    15.843058    11.177319 
  458800     2.959376    8.4637071      3.01215    15.912702    11.009855 
  459000    2.9868834    8.4544627    3.0157787    15.948326    10.162441 
  459200     3.037006    8.5041036    2.9276172    15.984952    10.718332 
  459400    3.0501192    8.4587371    2.9632807    15.994909    11.953817 
  459600    3.0628747    8.4798407    2.9698244     16.04168    11.319695 
  459800    3.0489644    8.4088536    3.0775548    16.057568    10.517579 
adapt lambda = 0.92 a0 = 2.76
  460000    3.0128801    8.4313305    3.0978566    16.046248    10.441911 
  460200     2.943869    8.4299048     3.053931    15.897431     12.48864 
  460400    2.9971472    8.4099419    3.0755433    15.978958    11.392924 
  460600    2.9572841    8.4219413    3.0118802     15.86753    11.238615 
  460800     2.934287    8.4085404    3.0245856    15.832356    11.857884 
  461000    2.9218207    8.4238942    2.9726052    15.777039    10.421945 
  461200    3.0637529    8.3738979    2.9292337    15.896463    10.475325 
  461400     3.065778     8.388869    2.9157908    15.901027     10.87468 
  461600    3.0540546    8.4259211     2.866562    15.871274    11.287729 
  461800    2.9429416    8.4075472    2.9861713    15.805924    11.176348 
  462000    2.9753858    8.4347815    2.9116542    15.807283    9.8292679 
  462200    2.9750027    8.4380428     3.028198    15.926514    10.423917 
  462400    3.0032397     8.394593    2.9825543    15.879754    11.411346 
  462600    3.0145761    8.4402688    2.8352281      15.7951    11.066891 
  462800    3.0066454    8.4445611    2.9559168    15.908191    11.771044 
  463000    2.9588018    8.4062795    2.9402004    15.782463     9.650069 
  463200     2.953438    8.4536263    2.9747337    15.856302    10.252884 
  463400    2.9916274    8.4109787    3.0186833    15.914859    10.165962 
  463600     2.968983    8.4259123    2.9864038    15.863564    11.725141 
  463800    3.0417768     8.383397     2.961472    15.905253    10.467285 
  464000    3.0024734    8.4133184    2.9931842    15.907961    9.6004267 
  464200    2.9622165    8.3672501     2.956363    15.764716    11.311322 
  464400    2.9642148    8.3860567    2.9567886    15.786944    10.711857 
  464600    2.9469717     8.451411     3.014155    15.883813    11.626701 
  464800    2.9677061    8.3954752    3.0760107    15.920819    10.594229 
  465000    2.9699515    8.4436286    3.0023319     15.89866     10.33127 
  465200    3.0205264     8.422273    2.8986501    15.849447     10.03827 
  465400    2.9899221    8.4484392    3.0027784    15.933858    12.948698 
  465600    2.9520145    8.4636867    3.0083571    15.897852    12.137146 
  465800    3.0884137    8.4096392    2.9886763     16.02862    9.8005835 
  466000      3.09199    8.4798068    3.0628464    16.178319    11.828563 
  466200     3.126692    8.4470761    3.0629935    16.197763    10.778634 
  466400    3.0755997    8.4343501    3.1156888    16.161132    9.5512377 
  466600    3.0656778    8.4675445    3.0612305    16.124992    10.995042 
  466800    3.0737409    8.4320072    2.9414503    15.981764    10.946998 
  467000    2.9878884    8.4322906    3.0097147    15.921597     10.69809 
  467200    3.0206457    8.4033567    2.9956707     15.92773    11.173995 
  467400    3.0146788    8.4062297    3.0621643    15.988151    10.289552 
  467600    2.9006815    8.4740953    3.0287116    15.851654    12.496878 
  467800    3.0305881    8.3839474    2.8734707    15.801027    11.330198 
  468000    2.9071786    8.4746466    2.9925285    15.825763    10.928828 
  468200    3.0050022     8.376801    3.0026616    15.884712    11.486814 
  468400    3.0290436    8.4257625     2.956175    15.923231    11.770167 
  468600    2.9516673    8.4203013    3.0686504    15.914239    10.847172 
  468800    3.0035683    8.4600021    3.0301901    15.993292    11.100229 
  469000    3.0113191     8.443314    2.9857476    15.943782    11.312202 
  469200    2.9966608    8.4319107    3.0794599    16.004114    12.100331 
  469400    2.9921899    8.3885683    3.0461568    15.920766    9.9292233 
  469600    2.9586718    8.3711612    3.0064721    15.813422    10.325319 
  469800    3.0093565     8.378251    2.9936392    15.883668    12.274508 
adapt lambda = 0.94 a0 = 2.82
  470000    3.0022384    8.4721496    3.0402552    16.013511    12.328906 
  470200     3.028116    8.4284288    3.0159833    15.984315    11.184891 
  470400    2.9631454    8.4441237    3.0090571    15.895676    10.331642 
  470600    2.9541953    8.4849885    3.0554322    15.969498    13.061253 
  470800    2.9828258    8.4167194    2.9990534    15.887774    11.518615 
  471000    3.0144743     8.431525     2.985815    15.936791    12.837487 
  471200    2.9905303    8.4273613    3.0366013    15.947515    10.665167 
  471400    3.0098179    8.4746545    3.0827501    16.069874    11.343266 
  471600    2.9387954    8.4137043    3.1117214    15.931415    11.136165 
  471800    2.9857358    8.4550292    2.9687128    15.900106    10.980677 
  472000    3.0197965    8.3955696    2.9763369    15.899336    10.372927 
  472200    2.9977178    8.4304679    2.9875942     15.91239    10.046995 
  472400    2.9930951    8.4130781    3.0486708    15.949147    12.943711 
  472600    2.9301354    8.4385872     3.064131    15.895724    11.907972 
  472800    2.9497314    8.4233378     3.034966    15.880689    10.426029 
  473000    2.9021048    8.4178008     3.044741    15.813522    11.849062 
  473200    2.9589538    8.3789229    3.1292693    15.944404     11.20546 
  473400    2.9853168     8.406951    3.0397814    15.922469    9.6098701 
  473600    3.0337654    8.4685051    3.0093694    16.026247    10.624332 
  473800    3.1084205    8.4236151    2.9390737    16.022988    10.305228 
  474000    3.0897935     8.400833    2.8837919    15.916998    10.449827 
  474200    2.9646809    8.4135503    2.9160614     15.77441    11.501672 
  474400    2.9733438    8.4131124     2.878527    15.749425    9.9668176 
  474600    2.9308104     8.419535    2.7968137    15.610366    11.282389 
  474800    2.9133977    8.4328771    2.8844318     15.68522    13.029424 
  475000    2.9774801    8.3782209    2.9459654    15.788173    12.194425 
  475200    2.9609884     8.431777    3.0348864    15.905925    11.125585 
  475400    2.9487846    8.4023457    3.0772788     15.90059      12.3088 
  475600    2.9943866    8.3850256    3.0174155    15.891775    12.666236 
  475800    2.8892084    8.3806489     3.065957    15.778252    11.133644 
  476000    3.0202668    8.3436237    3.0525206    15.924279    12.380989 
  476200    2.9955965    8.4050805    3.0624827    15.958711    10.943256 
  476400     2.980195    8.4304757    2.9082267     15.80676     12.07469 
  476600    3.0481834    8.4092385    2.9225899    15.901817    12.568192 
  476800    2.8501559     8.443773    3.0858503     15.80272    9.7256517 
  477000    3.0204203    8.4049117    2.9524796    15.885756    12.247761 
  477200    3.0085608    8.3597675    3.0984797    15.968832    11.653454 
  477400    2.9858917    8.4419689    3.0145228     15.93309    10.897616 
  477600    2.9856343      8.43215     3.026803    15.935165    11.629505 
  477800    3.0181724    8.3998661    3.0011105    15.925972    10.252173 
  478000    2.9411058    8.4013287    3.0563768    15.867158    9.7284511 
  478200    2.9785617    8.3518094    2.9224534    15.739871    11.938454 
  478400    3.0017215    8.3753829    2.9677122    15.843426    11.936996 
  478600     2.981207    8.3938293    2.9784913    15.841895    12.441724 
  478800     2.976139     8.416778     3.058951    15.937705    10.799887 
  479000    3.0222791    8.3764611    3.0368795    15.944492    12.317967 
  479200    2.9956938    8.3251578    3.0909087     15.90736     10.92914 
  479400    2.9160235    8.3737649    3.0831368     15.82875     12.10374 
  479600    3.0797922    8.3967204    3.0322405    16.046339    9.4244022 
  479800    3.0524909    8.4370318    3.0628901    16.076369    9.7785745 
adapt lambda = 0.96 a0 = 2.88
  480000    3.0046054    8.3987428     2.919688    15.823085    11.545788 
  480200    3.0339579    8.3484003    3.0442537    15.941315    10.418979 
  480400    3.0151979    8.4119957    2.9522228    15.884754    11.191422 
  480600    2.9952911    8.4239081    3.0339051    15.948503    10.811995 
  480800    2.9796725    8.4594756    3.0048819    15.931631    10.941544 
  481000    2.9918211    8.3832258    2.9592317    15.827945    11.565491 
  481200    3.0030534    8.4152465    2.9125439    15.830118    10.365797 
  481400    2.9647703    8.4075636    3.0142576    15.866753     11.55513 
  481600    3.0261736    8.4520098      2.96187    15.950871    11.661562 
  481800    2.9908017    8.4766754    2.9490003    15.909635    12.156374 
  482000    2.9817789    8.4601345    2.9570541    15.887621    10.335671 
  482200     3.046562    8.4169965    2.8576593    15.842214    10.292342 
  482400    2.9502328    8.4379295    2.9499406    15.811007    10.289313 
  482600    3.0480748    8.4691838    2.9707797     16.00979    10.889178 
  482800    3.1193165    8.4944242    2.9116722    16.082732    11.973888 
  483000    3.1002919     8.424629    2.9003765    15.973118    11.586573 
  483200    3.0596898    8.4314277      3.00088    16.019548    9.4321542 
  483400    3.0407205    8.4186137    3.0545422    16.031956    10.800513 
  483600    3.0883024    8.4019653    3.0468304    16.078933    11.107432 
  483800    3.0517225    8.4789906    3.0520668    16.106352    11.533756 
  484000     3.055985     8.467005    2.9935496     16.04224    11.492725 
  484200    3.0435337    8.5055033    2.9862095    16.054731    11.659861 
  484400    3.0110668    8.4234785    3.1269349    16.064755    10.837873 
  484600    2.9770342    8.4607312    3.0224505      15.9465    9.5691504 
  484800    2.9312988    8.4429188    2.8626368    15.700305    10.012649 
  485000    2.9644702    8.4467457    2.8670579    15.758286    10.860526 
  485200     2.957624    8.4055634    2.8911802    15.730961    10.850829 
  485400       2.9115    8.3936406    2.9443073    15.703014    9.6530697 
  485600    3.0181421    8.4054129    3.0010178     15.93138    11.344194 
  485800    3.0457726    8.4098118    3.0212786    15.997465    12.123276 
  486000    3.0717259    8.3695453    2.9592573    15.934088    11.578666 
  486200    2.9068776     8.394033    3.0190887    15.771258     10.78057 
  486400    2.9487029    8.4279515    2.9998251    15.848619    10.776718 
  486600    3.0007309     8.414149    2.9540673    15.867062     11.40752 
  486800    2.9762953    8.3734864    3.0794697    15.915167     10.09976 
  487000    2.9439679    8.4391187    2.9599624    15.812825    10.531496 
  487200    2.9567417    8.4045766    2.8678841    15.705356     11.07314 
  487400    2.9378267    8.4519205    2.9307992    15.787256    10.555926 
  487600    2.9869112    8.3991008    3.0614233    15.938651     10.46099 
  487800    2.9728544    8.3850469    3.0650176    15.907116    10.754115 
  488000    2.8920668    8.4314186     3.103707    15.871057    10.185955 
  488200    2.8851911    8.4368417    3.0139952     15.77646    10.981248 
  488400    3.0550953    8.3955002    2.9431349    15.918987     10.66004 
  488600    3.0814634    8.3886786    2.9833368    15.991899    11.541056 
  488800     2.911951    8.4006744    3.1542064    15.920623    11.465369 
  489000    2.9383944    8.4740311    3.0518005    15.931219    11.828624 
  489200    3.0052506     8.406891    2.9866539    15.899167    11.502083 
  489400    3.0003816    8.4137864    3.1135291    16.025638    9.6682081 
  489600    3.0505587    8.4547687    3.0998977    16.128217    11.520583 
  489800    3.0672272    8.4674887     3.056833    16.122862    10.921528 
adapt lambda = 0.98 a0 = 2.94
  490000     3.110496    8.4017647     3.024519    16.089695    11.026083 
  490200    3.0815474    8.4255768    2.9817254    16.027312    9.7541009 
  490400    3.0611948    8.4262494     2.854733    15.870479    10.335415 
  490600    3.0152217    8.4187612     2.802717    15.742049    12.477441 
  490800    3.0231213    8.4378842    2.8871707     15.85747    10.172998 
  491000    2.9307126    8.4130148    2.9475188    15.754404    11.459369 
  491200    2.9981838    8.4547885    2.9736226    15.923438    11.185183 
  491400    2.9947523    8.3766203    2.8999501    15.766453    11.075179 
  491600    2.9658998    8.3807278    2.9892625    15.816616    10.924308 
  491800    2.9313207    8.3955595    3.0685389    15.858881    12.648077 
  492000    3.0488075    8.3919746    3.0429398    16.005839    10.814292 
  492200    2.9321559    8.4199977     3.077079    15.893111    10.769251 
  492400    3.0507017    8.3809406    3.0203911    15.975096    12.533895 
  492600    3.0216814    8.4142476    3.0524233    15.996927    11.718095 
  492800    3.0412379    8.4250282    2.9542803    15.938884    10.790817 
  493000    3.0052979     8.437729    2.9770032    15.920425    11.794383 
  493200    3.0018422    8.4547731    3.0044602    15.959745    10.416076 
  493400    3.0059816    8.4463154     3.023552    15.976585     11.28787 
  493600    3.0543102    8.4349655    3.0235729    16.037713    11.713594 
  493800    2.9411163    8.4277893    3.0749655    15.912223    11.156623 
  494000     2.980474    8.4632324    3.0640193    15.995727    10.360155 
  494200    3.0578402    8.4590663    3.0280889    16.071622    10.720311 
  494400    2.9601511    8.4541889     2.996596    15.888791    12.275119 
  494600    2.9748116    8.4122057    3.0011371    15.873329     12.09946 
  494800    2.9587061     8.382132    3.0517455    15.869718    12.241388 
  495000    2.9893617    8.4122711    3.0037524    15.897824    10.541306 
  495200     2.995607    8.4320541      3.00515    15.928368    10.780359 
  495400    3.0746192    8.3631284    2.9198336    15.892585    11.569144 
  495600    2.9779078    8.3872788    3.0022952    15.854202    11.688674 
  495800     3.081414    8.3869926    2.8607455    15.867548    10.154369 
  496000    3.1220673    8.4482636    2.9381669     16.06719    10.060867 
  496200    3.0638652    8.3921891    2.9691437    15.954833    11.779186 
  496400    2.9425266    8.4608877     3.116147    15.988618    10.479421 
  496600    2.9727524    8.3829997    3.0826935    15.922592    11.574243 
  496800    2.9426606    8.4648016    3.1075296    15.984115    10.789262 
  497000    2.9899921     8.409562    3.0266139    15.918921    11.566003 
  497200    3.0294428    8.3577315    3.0494412    15.949065    10.123286 
  497400    3.0054775     8.486453    3.0971185    16.089534    10.352286 
  497600    3.0815552    8.3926331    2.9998476    16.012502    10.481733 
  497800    3.0294727    8.4252174    3.1297223    16.096877    10.716558 
  498000    2.9985146       8.4514    3.1014921    16.048415     10.86869 
  498200    3.0728484    8.4449018    2.9899964    16.041866    11.353621 
  498400    2.9598242    8.4940924    3.1640397    16.095649    11.024709 
  498600    2.9251527    8.4425536    3.1035896    15.931678     10.86461 
  498800    3.0993852    8.4304589    3.0283212    16.105533     11.41019 
  499000    3.0494617    8.4938802    3.0589877    16.124773     10.02771 
  499200    2.9932531    8.4840736    3.0995914      16.0713    12.729729 
  499400    3.0227365    8.3942054    3.1071575    16.033201    11.524818 
  499600    2.9599733    8.4198511    3.0482995    15.905891    10.598353 
  499800     2.994843    8.3864292    2.9470762    15.823524    11.155758 
adapt lambda = 1 a0 = 3
  500000    2.9363723    8.4647108    2.9930126     15.86008    10.461405 
Loop time of 6575.91 on 1 procs for 500000 steps with 2000 atoms

Performance: 6569.430 tau/day, 76.035 timesteps/s
96.0% CPU use with 1 MPI tasks x 1 OpenMP threads

MPI task timing breakdown:
Section |  min time  |  avg time  |  max time  |%varavg| %total
---------------------------------------------------------------
Pair    | 5955       | 5955       | 5955       |   0.0 | 90.56
Bond    | 160.23     | 160.23     | 160.23     |   0.0 |  2.44
Neigh   | 280.31     | 280.31     | 280.31     |   0.0 |  4.26
Comm    | 101.25     | 101.25     | 101.25     |   0.0 |  1.54
Output  | 2.315      | 2.315      | 2.315      |   0.0 |  0.04
Modify  | 49.865     | 49.865     | 49.865     |   0.0 |  0.76
Other   |            | 26.98      |            |       |  0.41

Nlocal:    2000 ave 2000 max 2000 min
Histogram: 1 0 0 0 0 0 0 0 0 0
Nghost:    3468 ave 3468 max 3468 min
Histogram: 1 0 0 0 0 0 0 0 0 0
Neighs:    64094 ave 64094 max 64094 min
Histogram: 1 0 0 0 0 0 0 0 0 0

Total # of neighbors = 64094
Ave neighs/atom = 32.047
Ave special neighs/atom = 3.6
Neighbor list builds = 33139
Dangerous builds = 1


# ----------------- Run Section -----------------

# The lines above define the system you want to simulate.
# What you do next is up to you.
# Typically a user would minimize and equilibrate
# the system using commands similar to the following:
#  ----   examples   ----
#
#  -- minimize --
# minimize 1.0e-5 1.0e-7 1000 10000
# (Note: Some fixes, for example "shake", interfere with the minimize command,
#        You can use the "unfix" command to disable them before minimization.)
#  -- declare time step for normal MD --
# timestep 1.0
#  -- run at constant pressure (Nose-Hoover)--
# fix   fxnpt all npt temp 300.0 300.0 100.0 iso 1.0 1.0 1000.0 drag 1.0
#  -- ALTERNATELY, run at constant volume (Nose-Hoover) --
# fix   fxnvt all nvt temp 300.0 300.0 500.0 tchain 1
#  -- ALTERNATELY, run at constant volume using Langevin dynamics. --
#  -- (This is good for sparse CG polymers in implicit solvent.)   --
# fix fxLAN all langevin 300.0 300.0 5000 48279
# fix fxNVE all nve  #(<--needed by fix langevin)
#  -- Now, finally run the simulation --
# run   50000
#  ---- (end of examples) ----

Total wall time: 1:52:58
