LAMMPS (5 Jun 2019)
OMP_NUM_THREADS environment is not set. Defaulting to 1 thread. (src/comm.cpp:88)
  using 1 OpenMP thread(s) per MPI task


# ----------------- Init Section -----------------

include "system.in.init"
        units lj
        atom_style angle
        pair_style hybrid dpd 3.0 2.5 583235
        bond_style hybrid harmonic
        angle_style hybrid harmonic
        special_bonds lj 0.0 0.0 0.0


# ----------------- Atom Definition Section -----------------

read_data "system.data"
  orthogonal box = (0 0 0) to (40 40 40)
  1 by 1 by 1 MPI processor grid
  reading atoms ...
  2000 atoms
  scanning bonds ...
  1 = max bonds/atom
  scanning angles ...
  1 = max angles/atom
  reading bonds ...
  1600 bonds
  reading angles ...
  1200 angles
  2 = max # of 1-2 neighbors
  2 = max # of 1-3 neighbors
  2 = max # of 1-4 neighbors
  4 = max # of special neighbors
  special bonds CPU = 0.00496028 secs
  read_data CPU = 0.0325827 secs

# ----------------- Settings Section -----------------

include "system.in.settings"
        pair_coeff 1 1 dpd 3.0 1.0
        pair_coeff 2 2 dpd 3.0 1.0
pair_coeff 1 2 dpd 8.0 1.0

        bond_coeff 1 harmonic 1000 0.4

        angle_coeff 1 harmonic 20 180
        angle_coeff 2 harmonic 20 180
        angle_coeff 3 harmonic 20 180
        angle_coeff 4 harmonic 20 180
        angle_coeff 5 harmonic 20 180
        angle_coeff 6 harmonic 20 180
        angle_coeff 7 harmonic 20 180
        angle_coeff 8 harmonic 20 180


# ----------------- Run Section -----------------

include "system.in.run"
  dump dxyz all atom 1000 poly.lammpstrj

  comm_modify vel yes
  thermo   200
  minimize 1.0e-6 1.0e-8 10000 100000
WARNING: Using 'neigh_modify every 1 delay 0 check yes' setting during minimization (src/min.cpp:168)
Neighbor list info ...
  update every 1 steps, delay 0 steps, check yes
  max neighbors/atom: 2000, page size: 100000
  master list distance cutoff = 2.8
  ghost atom cutoff = 2.8
  binsize = 1.4, bins = 29 29 29
  1 neighbor lists, perpetual/occasional/extra = 1 0 0
  (1) pair dpd, perpetual
      attributes: half, newton on
      pair build: half/bin/newton
      stencil: half/bin/3d/newton
      bin: standard
Per MPI rank memory allocation (min/avg/max) = 7.811 | 7.811 | 7.811 Mbytes
Step Temp E_pair E_mol TotEng Press 
       0            0    35.908091    19.054415    54.962507    1.5697087 
     200            0    3.0842636  0.082135658    3.1663993   0.21028912 
     400            0    2.2395103  0.039487902    2.2789982    0.1753711 
     600            0    1.7729219  0.029183323    1.8021052   0.15633872 
     800            0    1.4338824    0.0213063    1.4551887   0.13446448 
    1000            0    1.1824646  0.021687813    1.2041524   0.11555611 
    1077            0    1.1180815  0.018111048    1.1361925   0.10799127 
Loop time of 10.4349 on 1 procs for 1077 steps with 2000 atoms

99.7% CPU use with 1 MPI tasks x 1 OpenMP threads

Minimization stats:
  Stopping criterion = energy tolerance
  Energy initial, next-to-last, final = 
         54.9625065557      1.13619342346      1.13619253618
  Force two-norm initial, final = 10739.7 1010.86
  Force max component initial, final = 632.292 68.1433
  Final line search alpha, max atom move = 1.08055e-06 7.36323e-05
  Iterations, force evaluations = 1077 3895

MPI task timing breakdown:
Section |  min time  |  avg time  |  max time  |%varavg| %total
---------------------------------------------------------------
Pair    | 8.9362     | 8.9362     | 8.9362     |   0.0 | 85.64
Bond    | 0.66367    | 0.66367    | 0.66367    |   0.0 |  6.36
Neigh   | 0.4833     | 0.4833     | 0.4833     |   0.0 |  4.63
Comm    | 0.14959    | 0.14959    | 0.14959    |   0.0 |  1.43
Output  | 0.0054311  | 0.0054311  | 0.0054311  |   0.0 |  0.05
Modify  | 0          | 0          | 0          |   0.0 |  0.00
Other   |            | 0.1967     |            |       |  1.88

Nlocal:    2000 ave 2000 max 2000 min
Histogram: 1 0 0 0 0 0 0 0 0 0
Nghost:    2029 ave 2029 max 2029 min
Histogram: 1 0 0 0 0 0 0 0 0 0
Neighs:    27164 ave 27164 max 27164 min
Histogram: 1 0 0 0 0 0 0 0 0 0

Total # of neighbors = 27164
Ave neighs/atom = 13.582
Ave special neighs/atom = 3.6
Neighbor list builds = 195
Dangerous builds = 0
  timestep 0.001
  velocity        all create 3.0 49840
  fix      fxnve  all nve
  run   500000
Per MPI rank memory allocation (min/avg/max) = 6.688 | 6.688 | 6.688 Mbytes
Step Temp E_pair E_mol TotEng Press 
    1077            3    1.1180815  0.018111048    5.6339425   0.18354731 
    1200    2.3700482    1.3295133   0.87334196    5.7561499   0.27419115 
    1400    2.1078062    1.3736834    1.4450803    5.9788922  0.072759689 
    1600    2.6772128    0.9101949    1.2293711    6.1533773  0.073337596 
    1800    2.6896722   0.59441591    1.6077984    6.2347054  0.083329605 
    2000    2.7180951   0.42205296    1.8097006    6.3068577    0.0470561 
    2200    2.9516769   0.33234014    1.5794629    6.3371046   0.12320263 
    2400    2.8457761   0.25128362     1.885947    6.4037604  0.086323785 
    2600    2.8622158   0.20644602    1.9545846    6.4522077  0.064138905 
    2800    3.0488235   0.20581537    1.7169424    6.4937064  0.061921335 
    3000    2.9408837   0.19305003    1.9319335    6.5341034  0.050840103 
    3200    3.0467577   0.15949207    1.8594064      6.58675  0.054315105 
    3400    3.1265638   0.14129966    1.7773291    6.6061295  0.056636678 
    3600    3.0123236   0.14383314    1.9849681    6.6450274  0.047668166 
    3800    3.0299116   0.15105726    1.9547854    6.6484377  0.057176016 
    4000    3.0997981   0.13727197    1.8469663    6.6316105  0.061702292 
    4200    2.9985376   0.12198084    2.0491124    6.6666508  0.054509864 
    4400    3.0921327   0.12919041    1.9059492    6.6710196  0.059815723 
    4600    3.0975565   0.12512873    1.9252455    6.6943858  0.051285622 
    4800    3.0137634   0.12845228    2.0466488    6.6934859  0.043506381 
    5000    3.1287225   0.13665698    1.8946195    6.7220138   0.05394618 
    5200    3.1232549   0.14815942    1.9174606    6.7481599  0.060695883 
    5400    3.0765021   0.14192964    2.0060594    6.7604348  0.063620976 
    5600    3.1133652   0.15538992    1.9602962    6.7833989  0.044810036 
    5800    3.0714459   0.17344648    1.9912902    6.7696019  0.041786911 
    6000    3.0650352   0.17192794    2.0153925    6.7825744  0.061074209 
    6200    3.0862986    0.1739717    1.9660924    6.7671972  0.047300193 
    6400    3.0448805   0.20087156     2.002121    6.7680298   0.05142366 
    6600    3.0169912   0.17845646    2.0457105     6.747391   0.05184844 
    6800    3.0759454   0.17137684    1.9560463    6.7390343  0.063138302 
    7000    3.0432901   0.15918118    2.0072952     6.729129  0.030978069 
    7200    3.0423272   0.15918357    2.0390223    6.7594149  0.039564018 
    7400    3.0625712    0.1922409     1.962942    6.7467427  0.041247042 
    7600    3.0048026   0.19189163    2.0600413    6.7568833  0.043764497 
    7800     3.031233   0.16649764    2.0397556    6.7508292  0.053396588 
    8000    3.0375016   0.17452202    2.0383251    6.7668213  0.043273392 
    8200    3.0166976   0.19312318    2.0569119     6.772819  0.067474002 
    8400    3.0279884   0.19961521    2.0517459    6.7910728   0.05271219 
    8600    3.0649309   0.15863309    2.0379939    6.7917247  0.040621101 
    8800    3.0151512   0.17927523    2.1014663     6.801207  0.042333497 
    9000    3.0630138    0.1913193    2.0387675    6.8223103   0.06754065 
    9200    3.0696564   0.18726859    2.0328536    6.8223045  0.042678544 
    9400     3.044651   0.18037566    2.0812473     6.826316  0.051433172 
    9600    3.0572595   0.16536879    2.0623859    6.8113509  0.026854154 
    9800    3.1004597   0.15891526    2.0095182    6.8167977  0.041955483 
   10000     3.035014   0.15981592    2.1350396    6.8451003  0.034048665 
   10200    3.0698206   0.16315393    2.0904731    6.8560555  0.054940103 
   10400    3.0418944   0.15611682    2.1168965    6.8335735  0.049552649 
   10600    3.0434709   0.17074491    2.1118476    6.8455163  0.047871696 
   10800    3.0244229   0.16667406    2.1474368    6.8484769  0.036946841 
   11000    3.0648373   0.16898192    2.0920763    6.8560156  0.052589526 
   11200    3.0581425   0.15538245      2.12447    6.8647726  0.028258543 
   11400    3.0467479   0.16272577    2.1247581    6.8553207  0.043901488 
   11600    3.0254113   0.16292578    2.1762291    6.8750029   0.04578353 
   11800    3.0260064   0.16449794    2.1918113    6.8930493   0.04843181 
   12000     3.063123   0.16388283    2.1339231    6.8901931  0.051048419 
   12200    3.0517742   0.19497856    2.1427384    6.9130894  0.048418797 
   12400    3.0329517   0.18207205    2.2042867    6.9335116  0.046240746 
   12600    3.0425255   0.17988337    2.1948784    6.9362682  0.045014346 
   12800     3.068321    0.1618587    2.1476247    6.9096637  0.040051522 
   13000    3.0166216   0.15335739    2.2274522    6.9034796  0.036201642 
   13200     3.041891    0.1723654    2.1649486     6.897869   0.04393638 
   13400    3.0513703   0.18565838    2.1232182    6.8836436   0.05402427 
   13600    3.0001095   0.15993571     2.252263     6.910113  0.045593659 
   13800    3.0354926   0.16709121    2.1869932    6.9050466  0.054079632 
   14000    2.9902584   0.16857817    2.2450821    6.8968052  0.043446115 
   14200    3.0389945   0.15771544    2.1856976    6.8996256   0.04035531 
   14400    3.0691521   0.15926871    2.1720031    6.9326982  0.041237345 
   14600    3.0663156   0.16922016    2.1680979    6.9344917  0.026008948 
   14800    3.0750069   0.16915146    2.1616627    6.9410182  0.034636291 
   15000    3.0208561   0.15450336    2.2347265    6.9182484   0.03138237 
   15200    3.0362452   0.18259019    2.1867239    6.9214046  0.059535376 
   15400      3.05474   0.17149154    2.2032494    6.9545599  0.042299377 
   15600    3.0695063    0.1759792    2.1944635       6.9724  0.042724467 
   15800    3.0296841   0.17109392    2.2585411    6.9718889  0.041185942 
   16000    3.0445973   0.16574735    2.2531474    6.9835072  0.034830667 
   16200     3.058704   0.16783184    2.2313738    6.9849677  0.032227898 
   16400    3.0306935   0.19008797    2.2709555    7.0048106  0.036692387 
   16600    3.0183763   0.17708873    2.2902789    6.9926684  0.046105674 
   16800    3.0271397   0.18153218    2.2703411    6.9903125  0.036483366 
   17000    3.0623045    0.1540788     2.247254    6.9924928  0.044348711 
   17200    3.0810998    0.1459301    2.2584199    7.0236888  0.050397052 
   17400    2.9978651    0.1626623    2.3725118    7.0297233  0.025803644 
   17600    3.0662932   0.17887896    2.2514739     7.027493  0.028905972 
   17800    3.0004784   0.20515761    2.3088718    7.0124966  0.034754587 
   18000    3.0060808   0.19540038    2.3025597    7.0048267  0.040592724 
   18200     2.985612   0.17956356    2.3327226     6.988465  0.039243499 
   18400     2.977716   0.19088834    2.3463179    7.0015469  0.042200508 
   18600    2.9916496   0.19694471    2.3330299    7.0152052  0.025775408 
   18800    3.0178572   0.18270154    2.3091971     7.016421  0.030000096 
   19000     2.982007   0.19669194    2.3425546    7.0100204  0.050145139 
   19200    2.9804951   0.16810804    2.3880214    7.0246367  0.041354423 
   19400    3.0351236   0.15126598    2.3234699     7.025145  0.034475914 
   19600    3.0299603   0.15616547     2.329125    7.0279584  0.041934997 
   19800    3.0370882   0.14950708     2.329681    7.0325425   0.04924694 
   20000    3.0485447   0.14780126    2.3135094    7.0318413  0.035955243 
   20200    3.0377026   0.16521744    2.3164915    7.0359846  0.026196673 
   20400    3.0747803   0.16340976    2.2700097    7.0432838  0.016955317 
   20600    3.0542133   0.16733272    2.3136306    7.0599925  0.035544279 
   20800     3.046531    0.1672176    2.3287657     7.063495  0.048779003 
   21000    3.0326824   0.15875027    2.3585924    7.0640918  0.036927275 
   21200    3.0454237   0.17133318    2.3244391    7.0616237   0.05574532 
   21400    2.9969975   0.18157603    2.3708651    7.0456896  0.029409192 
   21600    3.0676511   0.17049176    2.2871623    7.0568301  0.046454456 
   21800    3.0039002   0.17645832    2.4156452    7.0957009  0.031486621 
   22000     3.014869   0.17202458    2.3803569    7.0724238  0.050447763 
   22200    3.0044259   0.17995418     2.405686    7.0900256   0.04566859 
   22400    3.0197341   0.19261728    2.3622217    7.0821754  0.046149866 
   22600    3.0515058   0.16950988    2.3648661     7.109346   0.03239321 
   22800    3.0348712   0.16908864    2.3873669    7.1064862  0.028529875 
   23000    3.0537528   0.15981825     2.350343    7.0885002  0.040908871 
   23200    3.0818544   0.14597044    2.3451818    7.1116224  0.045312757 
   23400    3.0582446   0.15912851    2.3743349    7.1185367  0.028329615 
   23600     3.072207    0.1675456    2.3365389    7.1100909   0.05046391 
   23800    3.0061159   0.18605989     2.419373    7.1123521  0.024868314 
   24000      3.01496   0.17470085    2.4181799    7.1130596  0.039781985 
   24200    3.0233156   0.15799669    2.4230595    7.1137622  0.041093045 
   24400    3.0546839   0.15455367    2.3741637    7.1084522  0.046679552 
   24600    2.9753125   0.17265754    2.4952125    7.1286073  0.039976045 
   24800    2.9887964   0.17425115    2.4653523    7.1205564    0.0407619 
   25000     3.064471   0.15636028    2.3647291    7.1154976  0.037119029 
   25200    2.9941185    0.1734638    2.4259024    7.0882985   0.03713908 
   25400    3.0344269   0.16732832    2.3944039    7.1110967  0.035269513 
   25600    3.0545361   0.17019946    2.3764392    7.1261519  0.014086716 
   25800    3.0626739   0.17387718      2.37953     7.145121  0.035093347 
   26000    2.9820705   0.16760815    2.5184873    7.1569648  0.034749488 
   26200    3.0507536   0.15922754    2.4274299    7.1604998  0.049626029 
   26400    3.0025409   0.15120163    2.5082939     7.161055  0.027831898 
   26600    3.0728734   0.14732208    2.3845688    7.1388963  0.031528291 
   26800    3.0696885   0.16515756    2.3893559    7.1567439  0.036720496 
   27000    3.0189461   0.15774384    2.4771846    7.1610833  0.030450968 
   27200    3.0689288   0.16218146    2.4122993    7.1755723  0.035391583 
   27400    3.0526428   0.15687888    2.4437781    7.1773317  0.025791709 
   27600    3.0502065   0.15303104    2.4584342    7.1844873  0.026215419 
   27800    3.0785457    0.1593247    2.4056257      7.18046  0.040027633 
   28000    3.0094273   0.15813781    2.5339376    7.2039593  0.017859465 
   28200    3.0317357    0.1787608    2.5305717    7.2546622  0.035886199 
   28400    3.0413956   0.16975187    2.5215839    7.2511481  0.023658838 
   28600    3.0578249   0.15559077    2.5127196    7.2527543  0.025106387 
   28800    3.0452119   0.15042954    2.5381329    7.2540964  0.021059134 
   29000    3.0601089   0.14914364     2.505577     7.242589  0.036325618 
   29200     3.013305   0.16040006     2.541759    7.2198566  0.028903912 
   29400    3.0048854   0.15374315    2.5525911    7.2114087  0.041812826 
   29600    3.0048279   0.16459827      2.53152    7.2011065  0.034152419 
   29800    3.0377409   0.14783556    2.5113201    7.2134886  0.036365277 
   30000    3.0511607   0.14213424    2.4915531    7.2081401  0.035580063 
   30200     3.080266   0.14556366    2.4583771    7.2220296  0.016750057 
   30400    3.0438003   0.14685072    2.5075356    7.2178039  0.037227926 
   30600    3.0305421   0.15854195    2.5193942    7.2214765  0.031327617 
   30800    3.0997277   0.14570774    2.4469812    7.2399557   0.02963678 
   31000    3.0072833    0.1638264    2.5705284    7.2430243  0.032626889 
   31200    3.0662092   0.16214032    2.4833599    7.2425144   0.02898451 
   31400      3.06977   0.16258578    2.4844434    7.2493818  0.021014773 
   31600    3.0142592   0.15036497    2.5653845    7.2348776  0.028087945 
   31800     3.064081   0.15211384    2.4898543    7.2357916  0.036391417 
   32000     3.020556   0.15509764    2.5447007    7.2283669  0.023349267 
   32200    3.0609896   0.16171282    2.4578981    7.2087996  0.026892883 
   32400    2.9877678   0.15938346    2.5468038     7.185598  0.032880121 
   32600    3.0714007   0.15143628    2.4430068    7.1992407  0.045617847 
   32800    3.0370069   0.18071663    2.4786087     7.212558  0.041563099 
   33000    3.0585453   0.16987042    2.4500564    7.2054508  0.032064801 
   33200    3.0333763   0.16452079    2.4699939    7.1823042  0.040602348 
   33400    3.0046149   0.16551449    2.5017627    7.1719461  0.031108474 
   33600    2.9837624    0.1668111    2.5393181     7.179535  0.025287426 
   33800     2.966335   0.17343738    2.5599823    7.1806975  0.028114519 
   34000    2.9967728   0.16545356    2.5222415    7.1806067  0.028258128 
   34200    3.0274989   0.15225059    2.5093242    7.2005525  0.035294079 
   34400    3.0286334   0.15299248    2.5054501    7.1991213   0.02385954 
   34600      3.01913   0.14995712    2.4797362    7.1561239  0.021121494 
   34800    3.0024808   0.15296084    2.5012349     7.155665  0.015872793 
   35000    3.0135189   0.15018726    2.4873207    7.1555262  0.041015777 
   35200    2.9895333   0.15500285    2.5376197    7.1746803  0.027705639 
   35400    2.9699706   0.16844474    2.5419262    7.1630994  0.044294161 
   35600    3.0127498   0.15852925    2.4978347    7.1732291  0.047346189 
   35800    2.9809529   0.15042748    2.5374227    7.1570438  0.025366701 
   36000    2.9670357   0.14788121    2.5408849    7.1370944  0.042047612 
   36200    3.0009527   0.15504787    2.4819943    7.1362205  0.019855749 
   36400    3.0344866    0.1625093     2.417356    7.1293193  0.040109685 
   36600    2.9808327   0.15547181    2.5056746    7.1301598  0.017368913 
   36800    3.0209711   0.14947049    2.4691703    7.1478317  0.022878524 
   37000    3.0078052   0.14308969    2.5008486    7.1533902  0.026905391 
   37200    3.0590074   0.15509182    2.4153519    7.1566605    0.0402163 
   37400    2.9674864   0.16019442    2.5375458    7.1467442  0.033608834 
   37600    2.9968549   0.15718997    2.4917308    7.1419555  0.040284068 
   37800    2.9946399   0.15104258    2.5311486    7.1719049  0.029811382 
   38000    2.9670162   0.15510591    2.5436334    7.1470384  0.029486235 
   38200    2.9932941   0.15163787    2.4795933    7.1189274  0.039501294 
   38400    3.0202982   0.15517224     2.447996    7.1313503  0.035657851 
   38600    2.9741716   0.16563315    2.5245685    7.1492284  0.028829645 
   38800    3.0144463   0.16493622    2.4770018    7.1613465  0.034843673 
   39000    3.0046622   0.15255518    2.5024373    7.1597324  0.027630532 
   39200    3.0011434   0.14990468      2.52664     7.176009  0.017882775 
   39400    2.9849106   0.17113119    2.5243839    7.1706424  0.021123581 
   39600    2.9936887   0.18148492    2.4829708    7.1527435  0.038642351 
   39800    3.0067396   0.18434782    2.4562541    7.1484563  0.054273382 
   40000    3.0199012   0.17518581    2.4331886    7.1359613  0.038420069 
   40200    2.9893849   0.19084659     2.477623    7.1503048  0.030565828 
   40400     2.958215   0.16008616    2.5715144    7.1667044  0.013599214 
   40600    2.9968058   0.15478325    2.5259019    7.1736462  0.025567367 
   40800    2.9983178   0.15690267     2.522329    7.1744597  0.029210178 
   41000    2.9568805   0.16085727     2.606811    7.2007713  0.015964631 
   41200    3.0225229   0.16808484     2.484821    7.1844234  0.032881839 
   41400    2.9595661   0.17345623    2.5710636    7.1816493  0.035374923 
   41600    2.9752669   0.17475403    2.5587465    7.1941694  0.028086244 
   41800    2.9720998   0.15149017    2.5557243    7.1631351  0.015228251 
   42000     2.963782   0.15053807    2.5838187     7.177807  0.025689866 
   42200    2.9906961   0.15789694    2.5442561    7.1859541  0.045419067 
   42400    2.9912772   0.16771292    2.5420678     7.194453  0.034089317 
   42600    2.9878713    0.1590834    2.5668896    7.2055391    0.0430727 
   42800     2.982526   0.13259002    2.6155954    7.2197375  0.023240728 
   43000     2.986161   0.14539293    2.5957808    7.2181756  0.037174818 
   43200    3.0068586   0.14424497    2.5720502    7.2243278  0.033104541 
   43400    3.0356683   0.14219421    2.5409375    7.2343574  0.027487182 
   43600    2.9957036   0.14423258    2.5984227    7.2339639  0.021353367 
   43800    2.9942497   0.15073847    2.5847099    7.2245772  0.024586683 
   44000    2.9431157   0.16361804    2.6413297    7.2174139  0.027225949 
   44200    3.0127668   0.14958905    2.5376861    7.2041659  0.037099346 
   44400    2.9834306   0.13791669    2.6074026    7.2182276  0.035139331 
   44600    2.9754405   0.14340629    2.5981089    7.2024444  0.013555877 
   44800    2.9710202   0.15811331    2.5982562    7.2106715  0.029733082 
   45000    2.9090969   0.15957825    2.7008958    7.2219375  0.026253605 
   45200    2.9631771   0.15950174    2.6334377    7.2354828  0.024904492 
   45400    2.9502929    0.1521251    2.6618369    7.2371886  0.017318491 
   45600    2.9724228   0.15556192    2.6251653    7.2371322  0.044368647 
   45800    2.9588085   0.16240395    2.6427951    7.2411927  0.026262073 
   46000    2.9733461   0.16385135    2.6133425    7.2349829  0.038717563 
   46200    2.9727496   0.15863013    2.6383975    7.2539225  0.030648336 
   46400    3.0003367   0.14724412    2.6090298    7.2545287  0.028637419 
   46600    3.0266606   0.15318097    2.5631203    7.2540222  0.022234446 
   46800    2.9643642   0.16083323    2.6644215    7.2695778  0.026147309 
   47000    3.0414426   0.16275355    2.5594578    7.2820941  0.036564891 
   47200    3.0121122   0.15193555    2.6011909    7.2690356  0.035153074 
   47400    3.0024129   0.15452012    2.6400319    7.2959195  0.035256998 
   47600    3.0074582   0.15070708    2.6621801    7.3218188   0.01371066 
   47800    3.0611746   0.15494761    2.5916476    7.3360612   0.03268895 
   48000    2.9907798   0.15536468      2.69438    7.3336714  0.014267166 
   48200    2.9745624   0.15968832    2.7077762    7.3270773  0.020547227 
   48400    2.9918602   0.16170836    2.6479074    7.2951623     0.033862 
   48600    2.9678945   0.14443788    2.7110142    7.3050679  0.040985896 
   48800     2.979381   0.14850773    2.7161123    7.3314569  0.020912437 
   49000    3.0381981   0.15035215    2.6378943    7.3432649  0.037044398 
   49200    2.9576255   0.15888526    2.7567881    7.3498934  0.026403448 
   49400    3.0111083   0.14781943     2.672152    7.3343755  0.026158433 
   49600    3.0074539   0.15042425    2.6836658    7.3430154  0.035951637 
   49800    3.0060732   0.15907569    2.6579768    7.3239077  0.028654837 
   50000     2.990819   0.15223432    2.6924366    7.3286563  0.032126293 
   50200    3.0416159   0.14856284    2.6144764    7.3231819  0.029569805 
   50400    2.9784434   0.15781583     2.711668    7.3349152  0.016309251 
   50600    3.0438343    0.1587297    2.6053697    7.3275681  0.034496167 
   50800    3.0077742   0.15084839    2.7078693     7.368123  0.026469556 
   51000    2.9832935   0.14688872    2.7675002    7.3870917  0.020927969 
   51200    3.0474651   0.15272009    2.6552343    7.3768664  0.036011716 
   51400    3.0185364   0.15593436    2.6960449      7.37752  0.032383348 
   51600    3.0189822   0.16226231    2.7000812    7.3885526  0.042473653 
   51800    3.0070935   0.15395415      2.74401    7.4063491  0.031781601 
   52000    2.9801188   0.15112824    2.7914511    7.4105224  0.023869182 
   52200    3.0189431   0.16729465    2.7098474    7.4032926  0.033626073 
   52400    3.0016619   0.15341398    2.7383471    7.3920026  0.033796724 
   52600    3.0613157   0.14680942    2.6477168    7.3842038  0.027903511 
   52800    2.9862876   0.15075775    2.7707132    7.3986627  0.024638732 
   53000    3.0491904   0.15568053    2.6593124    7.3864916  0.025346282 
   53200    3.0263213   0.14877518    2.6853017    7.3712891  0.022796353 
   53400     3.032075   0.15214706    2.6793277    7.3773132  0.024849762 
   53600    3.0056372   0.14602174    2.7220247     7.374248   0.02248961 
   53800    2.9924228   0.15220583    2.7239658    7.3625616  0.022569189 
   54000     3.009267   0.14923176    2.7179917    7.3788671  0.032704435 
   54200    3.0406699   0.14506724    2.7039149    7.4077064  0.028040101 
   54400    3.0254612    0.1449398    2.7276828    7.4085454  0.029403924 
   54600    3.0376093   0.14323789      2.71902    7.4163937  0.015297916 
   54800    3.0596422   0.13230536    2.6875133    7.4069873  0.032784441 
   55000    3.0118891   0.15202319    2.7574855    7.4250834   0.01908463 
   55200    3.0469513   0.16087284    2.6910082    7.4200227  0.047484134 
   55400     3.047552   0.15410696    2.7002719    7.4234212  0.041301862 
   55600    3.0396401   0.14843715     2.737947    7.4435646  0.026518197 
   55800    3.0424981   0.14170448    2.7466616    7.4498313  0.017108679 
   56000    3.0746639   0.14621249    2.7003249    7.4562272  0.028284066 
   56200    3.0334887   0.14037557    2.7616283    7.4499618  0.035189138 
   56400    3.0541055   0.14018882    2.7377087    7.4567651  0.019109752 
   56600    3.0518742   0.14599155    2.7639646    7.4854785  0.026873145 
   56800    3.0187417   0.14724959    2.7816112    7.4547092  0.021369148 
   57000    3.0714808    0.1560742    2.6941748    7.4551666  0.022031455 
   57200    3.0256855   0.16887161    2.7642334    7.4693641  0.030482821 
   57400    3.0455655    0.1552148    2.7302934    7.4515723  0.026414122 
   57600    3.0015639    0.1497236    2.7851564    7.4349747  0.026788643 
   57800    3.0293629   0.14080448    2.7495083    7.4320851  0.034464794 
   58000    3.0801115   0.14478194    2.6914198     7.454059  0.029441616 
   58200    3.0274144   0.15634686    2.7722322      7.46743  0.021575416 
   58400    3.0316334   0.14756725    2.7957809    7.4885245  0.024929368 
   58600    3.0661357   0.15267128    2.7460244    7.4955997  0.019504576 
   58800    3.0679142   0.16514383    2.7193408    7.4840549  0.032458858 
   59000    3.0473097   0.14915414    2.7807409    7.4985742    0.0232184 
   59200    2.9968606   0.15311409    2.8516456     7.497803  0.022339816 
   59400    3.0197786   0.15883909    2.8267445    7.5129866  0.019412543 
   59600    3.0788424   0.16085811    2.7312997    7.5081122  0.039248598 
   59800    3.0649374   0.15210014    2.7862143    7.5334219  0.035906872 
   60000    3.0737261   0.14562112    2.7848936    7.5387986  0.017133546 
   60200     3.026855   0.14395106    2.8597394    7.5417028   0.01569823 
   60400    3.0615646   0.15292932    2.7781016    7.5210816  0.030664017 
   60600    3.0307557   0.15400454      2.79507     7.492935  0.033595294 
   60800    2.9964097    0.1649733    2.8292113    7.4865518  0.019151514 
   61000    3.0693066   0.16330145    2.7235979    7.4885573  0.029845158 
   61200    3.0944334   0.16501787    2.6917315    7.4960787  0.036099491 
   61400    3.0683836   0.15939178    2.7440763    7.5037422  0.028261392 
   61600    3.0332427   0.14712054    2.7786431    7.4733527  0.033429036 
   61800     2.994481    0.1649155    2.8151274    7.4695185  0.030003248 
   62000    2.9941512   0.16758902    2.8276748     7.484245  0.027293982 
   62200       3.0509   0.15872144    2.7513677    7.4841509   0.03962973 
   62400    3.0645772   0.14926999    2.7555864    7.4994238  0.034471543 
   62600    3.0398352    0.1590469    2.8118454    7.5283652  0.020097072 
   62800    3.0521627   0.14648581    2.7939842     7.516425  0.031587078 
   63000    3.0444039   0.14723305    2.8047679    7.5163235  0.023196064 
   63200     3.039621   0.13883719    2.7911515    7.4871405  0.014648894 
   63400    3.0512617   0.14952634     2.762945    7.4870754  0.033345635 
   63600    3.0959748   0.15018842    2.6833674    7.4751961  0.027082533 
   63800    3.0787927   0.13999565     2.718903    7.4747787  0.020354931 
   64000    3.0944183   0.14762824    2.6991798    7.4861147  0.016014876 
   64200    3.0761848     0.142342    2.6983816    7.4526936  0.024170692 
   64400    3.0372682    0.1456436    2.7848376    7.4841056  0.017561346 
   64600    3.0160905   0.15158253    2.7800625    7.4535187  0.025400018 
   64800    3.0047204   0.14786303    2.8078024    7.4604924  0.033755751 
   65000    3.0431231   0.15187876    2.7445823    7.4588634  0.029475623 
   65200    3.0463732   0.15084719     2.737333    7.4554552  0.042980035 
   65400    3.0132774   0.16239075    2.7957814    7.4758283  0.023816592 
   65600    3.0317571   0.13974295    2.8023758    7.4874805  0.028665161 
   65800    3.0488769   0.13831703    2.7767071    7.4860528  0.037937607 
   66000    2.9842803   0.15656769    2.8610588    7.4918087  0.017373201 
   66200    3.0770836   0.15267208    2.7224793    7.4884689  0.032503536 
   66400    2.9522577   0.15850711    2.9025708    7.4872503 0.0053219117 
   66600    3.0586518   0.15130038    2.7458047    7.4827887  0.034592654 
   66800    2.9993129   0.15664727    2.8315796    7.4849468  0.024327858 
   67000    3.0133282   0.15424713    2.7915522    7.4635316  0.021107567 
   67200    3.0354601   0.15073865    2.7626013    7.4642535  0.021101187 
   67400    3.0866415    0.1532743    2.6668037    7.4477254  0.039932579 
   67600    2.9715346   0.15384915     2.856933    7.4658554  0.018220296 
   67800    2.9931944   0.15123194    2.8120594     7.450838   0.02074305 
   68000    3.0540755   0.14835158    2.7433362    7.4705105  0.021520884 
   68200    3.0605327   0.15020563    2.7043914    7.4431007   0.02750531 
   68400    3.0233998   0.14618895    2.7897615    7.4687826  0.024613993 
   68600    3.0178908   0.15017528    2.8027688    7.4775168  0.031075821 
   68800    3.0048977    0.1565839    2.8071242     7.468801  0.029226507 
   69000    2.9956167   0.15006858    2.8185914    7.4598384  0.036474909 
   69200    3.0304239   0.15471263    2.7472728    7.4453485  0.025995305 
   69400    3.0078833    0.1546506     2.789772    7.4539915  0.021580689 
   69600    3.0348204   0.14827204    2.7455084    7.4437349  0.031134707 
   69800    3.0415549   0.13629612    2.7411753    7.4375226  0.024128951 
   70000    3.0091008   0.14044978    2.7897273    7.4415715  0.024211503 
   70200    2.9730088    0.1517082    2.8321981    7.4411898  0.027208421 
   70400    3.0452594   0.15701786    2.7487502    7.4713732  0.024388963 
   70600    3.0190785   0.15596459    2.7975212    7.4798393  0.028508903 
   70800    3.0484444   0.15509088    2.7746837    7.5001549  0.017945685 
   71000    3.0520065   0.13758054    2.7721547    7.4854559  0.027197067 
   71200    2.9862436   0.15419785    2.8632824    7.4946059  0.030247484 
   71400    3.0558538   0.17603773    2.7414288    7.4989553  0.036242237 
   71600    3.0229708   0.15714869    2.8259623       7.5153  0.043497081 
   71800    3.0303653   0.13463442    2.8287881    7.5066977  0.034128834 
   72000    3.0518574   0.14375218    2.7968677    7.5161171   0.03188852 
   72200    3.0169748    0.1378115    2.8535378    7.5145487  0.034151816 
   72400      3.02997     0.144399    2.8412873    7.5283687  0.019583373 
   72600    3.0533702    0.1508496      2.80426    7.5328748  0.018064863 
   72800    3.0321277   0.14990897    2.8442367    7.5400632  0.025242506 
   73000    3.0192922   0.14516995    2.8442614    7.5161052  0.027909081 
   73200    3.0792193   0.15698032    2.7565194    7.5300193  0.036643939 
   73400    2.9998797   0.16581603    2.8797672    7.5431528  0.026888573 
   73600    2.9967356   0.15977347    2.8946487    7.5472781  0.028381366 
   73800    3.0468474   0.14617712    2.8261847    7.5403477   0.02673964 
   74000    3.0590341   0.15762737    2.8075136    7.5513978  0.019560587 
   74200    3.1137201   0.15179429    2.7544951    7.5745342  0.034395346 
   74400     3.030457   0.13819327    2.9019708    7.5835768 0.0025625415 
   74600    3.0662685   0.14216771    2.8386625    7.5779333   0.02987153 
   74800    3.0279955   0.16339679    2.8746014    7.5777205  0.023210299 
   75000    3.0541021   0.15474479    2.8671173    7.6007246  0.034864083 
   75200    3.0919634    0.1459277    2.8275204    7.6090743  0.031436363 
   75400    3.0318876   0.14831905    2.9028265    7.5967031  0.021684759 
   75600    3.0151319    0.1794497    2.8828097    7.5826959  0.012298787 
   75800     3.061938   0.17750437    2.7922492    7.5603641  0.025968752 
   76000    3.0736714     0.151588    2.7994836    7.5592734  0.020752261 
   76200    3.0775095   0.14753154    2.8133984    7.5748861  0.025459458 
   76400    3.0461738   0.15273816    2.8431309    7.5628452  0.039937211 
   76600    3.0535751   0.13738295    2.8572568    7.5727122  0.030492044 
   76800    3.0611045    0.1413708    2.8312272     7.561959  0.035728569 
   77000    2.9986695    0.1505959    2.9127869     7.559138  0.023401983 
   77200    3.0661415   0.14484863    2.8374838    7.5792451  0.013502866 
   77400    3.0655648   0.14405676    2.8365351    7.5766399  0.027007211 
   77600    3.0620791   0.13862575    2.8758354    7.6052833  0.023538387 
   77800    3.1030377   0.14201705    2.8161872    7.6104335  0.035525947 
   78000     3.103328   0.13550773    2.8185637    7.6067359  0.015489937 
   78200    3.0916511   0.14477685    2.8483627    7.6282975  0.022121233 
   78400    3.0505988   0.13791651    2.9029104    7.6144372  0.028243175 
   78600    3.0550655   0.14007573    2.8848832    7.6052659  0.016838289 
   78800     3.068047   0.14710476    2.8659787    7.6128528  0.027825038 
   79000    3.0522653   0.14348284    2.8839459    7.6035375  0.035859157 
   79200    3.0972503   0.14756864    2.8119726    7.6030938  0.038274429 
   79400    3.0704114   0.15608327    2.8513007    7.6106983   0.03627045 
   79600    3.0233426   0.13982933    2.9356912    7.6082669  0.035570946 
   79800    3.0826164   0.14371856    2.8716802    7.6370115   0.01675335 
   80000     3.052613   0.14336332    2.8967801    7.6167734  0.028974955 
   80200     3.042921   0.15545926    2.8967918    7.6143504  0.040998582 
   80400    3.0352803   0.16485966    2.9031415    7.6186451  0.018288293 
   80600     3.074659   0.14596458    2.8574209     7.613068  0.051057815 
   80800     3.013551    0.1440821     2.931351    7.5934995  0.022549898 
   81000    3.0021091   0.14070379    2.9371263    7.5787421  0.012978801 
   81200     3.088501   0.13869895    2.8049649    7.5740991  0.029573168 
   81400    3.0496639   0.13522013    2.8783595    7.5857882  0.027290736 
   81600    3.0454986   0.14907943    2.8645411    7.5795843  0.037699741 
   81800     3.049711   0.16819382    2.8401869    7.5806599  0.014750676 
   82000    3.0271519   0.16067281    2.8994667    7.5985971  0.012532971 
   82200    3.0663023    0.1477594    2.8612404    7.6061534  0.021927735 
   82400    3.0577597    0.1396734    2.8724751    7.5964946   0.02376649 
   82600    3.0216371   0.13823369    2.9261202    7.5945433  0.026430244 
   82800    3.0484317   0.14411278    2.8761601    7.5906341  0.035852617 
   83000    3.0330702   0.16098908    2.8820239    7.5903435  0.044082229 
   83200    3.0044115    0.1487391    2.9584869    7.6115899 0.0099751506 
   83400    3.0590293   0.14678495    2.8901244     7.623159  0.031050116 
   83600    3.0734729   0.14163872    2.8581088    7.6076518    0.0268675 
   83800    3.0274588   0.15237039     2.918839    7.6101269  0.031559161 
   84000    3.0178335   0.16977215    2.9146637    7.6089227  0.028937169 
   84200    3.0439611   0.15400021    2.8876385    7.6052973   0.02113186 
   84400    3.0771296   0.14584318    2.8368393    7.5960691  0.020904987 
   84600    3.0506912   0.14527261    2.8475024    7.5665238  0.015409802 
   84800    3.0595011   0.14272704    2.8340474    7.5637315  0.025712619 
   85000     3.016997   0.15699367    2.8785387    7.5587652  0.016177183 
   85200    3.0710646   0.14960754     2.813752    7.5676531  0.034932929 
   85400    3.0441301   0.14843515    2.8438304    7.5561776  0.018812762 
   85600    3.0544897   0.14561639    2.8261723    7.5512324  0.016015304 
   85800     2.986228   0.14177681    2.9270633    7.5459424  0.020804087 
   86000    3.0470038   0.13852472     2.827147    7.5338922  0.027146236 
   86200    3.0462825   0.16054493    2.8061739    7.5338579  0.039826438 
   86400     2.981813   0.15610783    2.9165454    7.5431364  0.020982211 
   86600    3.0421464   0.14310476    2.8282058    7.5322485  0.017724326 
   86800    3.0239928   0.14488477    2.8758765    7.5544825  0.014885648 
   87000    3.0009149   0.15376007    2.9131297    7.5660114  0.012265827 
   87200    3.0531671   0.15891382    2.8179857    7.5543602  0.029387766 
   87400    3.0335546   0.15450154    2.8230998    7.5256581  0.038652506 
   87600    3.0241513   0.15146644    2.7970573    7.4824826  0.027105337 
   87800    3.0260386   0.14397894    2.8124525    7.4932198  0.027819221 
   88000    3.0484375   0.13773437    2.7749973    7.4831016  0.032871642 
   88200    2.9974286   0.14747964    2.8641323    7.5055069  0.022472126 
   88400    3.0366438   0.14057386    2.8474923    7.5407544  0.026846391 
   88600    3.0775048    0.1462497    2.7564703     7.516669  0.013616775 
   88800    2.9966742   0.15011384    2.8995167    7.5423943   0.01158091 
   89000    3.1082775   0.14625208    2.7484885    7.5548256  0.025273641 
   89200    2.9962875   0.15687101    2.8999234    7.5489785  0.019844946 
   89400    2.9957325   0.16762662    2.8701761    7.5291546  0.040252827 
   89600    3.0162552   0.15246499    2.8473144    7.5218999  0.051333508 
   89800     3.015212   0.15025862     2.825512    7.4963271  0.017741148 
   90000    3.0246112   0.15292962    2.8066153    7.4941933  0.028392491 
   90200    3.0155298   0.14773401    2.8675749     7.536342 0.0057798948 
   90400     3.047418   0.14807312    2.8088426    7.5257571  0.025012312 
   90600    3.0656067   0.15364203    2.7861055    7.5358584  0.017319718 
   90800    3.0447136   0.14780967    2.8212997    7.5338963  0.014297022 
   91000    3.0507632   0.14259362    2.8078952    7.5243455  0.027310645 
   91200    3.0423831   0.13828673    2.8249003    7.5244798  0.031197775 
   91400    3.0301157   0.13777475    2.8214162    7.5020919  0.039221679 
   91600    3.0357574   0.14629404    2.8271846    7.5248379  0.019246667 
   91800    2.9784729   0.15696095     2.883065    7.5055014  0.025995718 
   92000    3.0098206   0.14519959    2.8456791    7.5033523  0.023170014 
   92200    2.9818225    0.1470009    2.8916661    7.5091644  0.021277702 
   92400    3.0048512   0.14797083    2.8846086    7.5376025  0.030255196 
   92600    3.0233647    0.1482762    2.8445439    7.5255997  0.016756868 
   92800    3.0154045   0.15311273     2.831367    7.5053249  0.023580856 
   93000    3.0352259   0.15960242       2.7879    7.4980648  0.017939867 
   93200    3.0059488   0.16030627     2.829692     7.496667  0.022330105 
   93400    3.0764196   0.14513212    2.7424063    7.4998605  0.037267833 
   93600    3.0109021   0.14715902    2.8418601     7.503114  0.011854036 
   93800    3.0239815   0.14869579    2.8145043    7.4969044  0.020294055 
   94000    3.0611005   0.13120888    2.7712508    7.4918146  0.019159903 
   94200    3.0313625   0.13436639    2.8085473    7.4876839  0.020511933 
   94400    3.0344824   0.14243909    2.7945016    7.4863884  0.034596884 
   94600    3.0187992   0.13913439    2.8309552    7.4960243  0.030972565 
   94800    2.9938134   0.15009031     2.872944    7.5115091  0.033179675 
   95000    3.0143045   0.15098755    2.8510428    7.5212263  0.016437112 
   95200    3.0418545   0.14115042    2.8188237    7.5204745  0.030310121 
   95400    3.0211741   0.14605021    2.8273075     7.502853  0.017668814 
   95600    3.0331096   0.13493473    2.8330806    7.5154049  0.022063439 
   95800    3.0465811   0.13055863    2.8363142    7.5344596  0.016595023 
   96000    3.0736756   0.12786076    2.7985392     7.534608  0.021391825 
   96200    3.0479154   0.13998316    2.8223738    7.5319441  0.021671207 
   96400    3.0745977    0.1563281    2.7774093     7.543328  0.026897806 
   96600    3.1113199   0.14391651    2.7415321    7.5500949  0.030438986 
   96800    3.0547001   0.15440141    2.8244738    7.5586344  0.023705831 
   97000      3.04927   0.15659869    2.8370945    7.5653113  0.019766911 
   97200    3.0594518   0.14345181    2.8164919    7.5468268  0.026863337 
   97400    3.0705422   0.15217187    2.7840743    7.5397566  0.032006837 
   97600    3.0327676    0.1483543     2.877973    7.5732041  0.018248492 
   97800    3.0353125   0.15484128     2.864387    7.5699206  0.033974544 
   98000    3.0747446   0.16105146    2.7977499    7.5686123  0.030087281 
   98200    3.0804516   0.14473779    2.8199457    7.5830505  0.041201194 
   98400    3.0628285   0.13669937    2.8577291    7.5863741  0.026311241 
   98600    3.1503288   0.14305348    2.7433891     7.609573  0.022141623 
   98800    3.0693574   0.14518624    2.8378769    7.5847972  0.019566259 
   99000    3.0825517   0.13977392    2.8252981    7.5865877  0.032893585 
   99200    3.0780656    0.1446866    2.8090236       7.5685   0.02883662 
   99400    3.0297077   0.14786404    2.8827811    7.5729344  0.021710046 
   99600     3.024481    0.1515493    2.9013792    7.5873816  0.024467698 
   99800    3.0535109   0.14133711    2.8895817     7.608895  0.042080808 
  100000    3.0118238   0.14867747    2.9491476    7.6133019   0.03038505 
  100200    3.1088439   0.15068021    2.7942249    7.6058393  0.029449879 
  100400    3.0742372   0.14191252    2.8554229    7.6063856   0.01352014 
  100600    3.0478217   0.14800725    2.8792893    7.5967433  0.025928584 
  100800    3.0945356    0.1465112    2.7948228    7.5808165  0.021070715 
  101000     3.105291   0.14525754     2.763618    7.5644832  0.028930149 
  101200    3.0482276   0.13796241     2.868587    7.5766046  0.023293568 
  101400    3.0813448   0.13030139    2.8061486    7.5561562  0.022921164 
  101600    3.0573629   0.13649693    2.8481276    7.5683758   0.03081108 
  101800    3.0446016   0.14496079    2.8816669    7.5912465  0.032257145 
  102000    3.1344519   0.13866047    2.7508542    7.5888417  0.023885247 
  102200    3.0591742   0.13391855    2.8798586    7.6002442  0.031178452 
  102400    3.0866026   0.13643082    2.8452344    7.6092542  0.021263913 
  102600    3.0789494   0.13909138    2.8316495    7.5868558  0.038468158 
  102800    3.0310765   0.13264947    2.9299179    7.6069087  0.028271371 
  103000    3.0646513    0.1380527     2.862252    7.5949831  0.044473864 
  103200    3.0210608   0.14659986     2.914869    7.5907942  0.021587649 
  103400    3.0807157   0.15062657    2.8571661    7.6265556  0.037494452 
  103600    3.0505831   0.14094729    2.8924812    7.6070152  0.013987587 
  103800    3.0902245   0.14365736    2.8356791    7.6123556  0.021654595 
  104000    3.0823614   0.14657569    2.8547002    7.6225061 0.0092036786 
  104200    3.1025197   0.14786433    2.8125961    7.6119131  0.029158407 
  104400    3.0584086   0.13188053    2.9009512    7.6181508  0.015992754 
  104600    3.0805343   0.13788408     2.892817    7.6491921  0.033039663 
  104800    3.1040291   0.15453078    2.8189494    7.6271958  0.033114128 
  105000    3.0340463   0.14981753    2.9031616    7.6017731  0.027874881 
  105200    3.0056065   0.14271343    2.9415295    7.5903986  0.026449767 
  105400    3.0242565    0.1446609    2.9104104    7.5891879  0.021644966 
  105600    3.0594936   0.13642854    2.8689108    7.5922852  0.040257006 
  105800    3.0467582    0.1518503    2.8787212    7.5984236   0.02642749 
  106000    3.0458442    0.1562113    2.8773367    7.6000298  0.031018043 
  106200    3.0583822   0.14676361     2.899756    7.6317992  0.020836751 
  106400    3.1141981   0.14485412    2.8165288    7.6303445  0.022070574 
  106600    3.0454298   0.16298921    2.9053978    7.6342475  0.031200481 
  106800    3.0485562   0.16385376     2.903114    7.6375156   0.03723024 
  107000    3.0541238    0.1481233    2.9108087    7.6378271  0.017285948 
  107200    3.0572708    0.1570078    2.8926772    7.6332982  0.041581572 
  107400    3.0039448   0.16166899    2.9846682    7.6500015  0.029014926 
  107600    3.0727273   0.14699042    2.9157355    7.6695123  0.040195046 
  107800    3.0648339   0.15589364    2.9195246    7.6703705  0.027295596 
  108000    3.0923371   0.15416984     2.905278    7.6956343  0.034187836 
  108200    3.0887916    0.1534954    2.8959248     7.680291  0.012315066 
  108400     3.079917   0.14560253    2.9185677    7.6817357  0.028077766 
  108600     3.043232   0.14607304    2.9692107    7.6778493  0.010823502 
  108800    3.0625012   0.14159434    2.9257396    7.6587889  0.028397624 
  109000    3.0668412   0.14250151    2.9217712    7.6622344  0.022753338 
  109200    3.1134788   0.13736443    2.8555213    7.6607688  0.027469946 
  109400    2.9850841   0.13251151    3.0584185    7.6663174 0.0056875414 
  109600    3.0577859   0.13570387    2.9656334    7.6857228  0.014425678 
  109800    3.0909209   0.14770018      2.91907    7.7008334    0.0409928 
  110000    3.0292547   0.15014661    3.0076215    7.6993781  0.029905722 
  110200    3.0873512   0.14759097    2.9164128     7.692715  0.031729503 
  110400    3.0820426   0.14756407    2.9175711    7.6858876  0.028948027 
  110600    3.0818367   0.16154791    2.9088427    7.6908343  0.025116531 
  110800    3.0599596   0.15743826    2.9320991    7.6771818 0.0091159481 
  111000    3.0726175   0.14238565    2.9304749    7.6794824  0.026831393 
  111200    3.0440351   0.14797384    2.9509566       7.6627  0.027311423 
  111400    3.0531285   0.15365173     2.926319    7.6573737  0.037494012 
  111600    3.0063348   0.16508784    2.9681401    7.6404754   0.02867172 
  111800    3.0553487   0.17281078      2.89538    7.6489222  0.012739791 
  112000    3.0555132   0.15292293    2.9268478    7.6607489  0.023395063 
  112200    3.0292963   0.15758459    2.9514968    7.6507539  0.023683743 
  112400    3.0646151    0.1421105    2.8842282    7.6209628  0.024023374 
  112600    3.0531579   0.13381246    2.8880247    7.5992841  0.024661648 
  112800      3.04879   0.14115142    2.8569073    7.5689571  0.024859278 
  113000    3.0511729   0.13782411    2.8546817    7.5669767  0.019485372 
  113200    2.9960604   0.14333919    2.9180118    7.5531945 0.0019002127 
  113400    3.0469486   0.14186807    2.8340761    7.5440819   0.02666924 
  113600    3.0392781   0.14726342    2.8014264    7.5053275  0.031995669 
  113800    2.9900225   0.14853571    2.8547558    7.4860828  0.020510047 
  114000    2.9323633   0.14186738    2.9592922    7.4975053   0.01811542 
  114200    3.0223797   0.15018234    2.8040179     7.485503  0.032944055 
  114400    2.9986006    0.1466683    2.8456652    7.4879855  0.030804818 
  114600    3.0030995   0.14001875    2.8328273     7.475243  0.024322351 
  114800    3.0173356   0.14175232    2.8307043    7.4961971  0.036372746 
  115000    3.0082924   0.14406266    2.8570667    7.5113117  0.020194663 
  115200    3.0194394   0.15334756    2.8363913    7.5166333  0.021281227 
  115400    3.0139681   0.15182896    2.8638856    7.5344063  0.029494979 
  115600    2.9884833   0.16280128    2.8859361    7.5292209 0.0051771136 
  115800    3.0399992   0.15082875    2.8259577    7.5345052  0.036998144 
  116000    3.0305157    0.1564228     2.825411    7.5253344   0.02720322 
  116200    2.9607951   0.16414034    2.9078834    7.5109957  0.019003686 
  116400     3.067248   0.14248102    2.7693853     7.510438  0.023378988 
  116600    3.0217977   0.13514099    2.8692854    7.5348566  0.024521594 
  116800    2.9742793   0.13780836    2.9348862    7.5318828  0.021196504 
  117000    3.0046404   0.15091072    2.8570507    7.5126686  0.028725334 
  117200    2.9598339   0.14919738    2.9282423    7.5149706  0.028226678 
  117400    3.0066427   0.14114015    2.8604468     7.509296  0.025625946 
  117600    2.9931388   0.14756896    2.8564457     7.491478  0.021922945 
  117800     2.986435   0.15671429     2.851855    7.4859819  0.022581872 
  118000    2.9974604   0.15530435    2.8233355    7.4725824  0.034285017 
  118200    2.9805659   0.14187128    2.8698091    7.4802938  0.020851459 
  118400    2.9584425   0.13833317    2.9118469     7.485625 0.0096604253 
  118600    2.9630819   0.13964563    2.9119949    7.4940411  0.016386469 
  118800    2.9719253   0.14095508    2.9047314    7.5013456  0.019245666 
  119000     2.934308   0.14342968    2.9520865    7.4947775  0.024997272 
  119200    2.9619523   0.15582365    2.8931616    7.4896922  0.031965329 
  119400    3.0096447   0.15286246    2.8427774    7.5078497  0.038673424 
  119600    2.9942248    0.1410803    2.9064337    7.5366055  0.019922593 
  119800    3.0520837     0.130224    2.8784627    7.5845231  0.029797167 
  120000    3.0546991    0.1414289    2.8662705    7.5874571  0.036772069 
  120200    2.9946084   0.15292504    2.9313965    7.5739881  0.030630321 
  120400    2.9971151   0.15178443    2.9198374    7.5650466  0.028197025 
  120600    3.0356389   0.14876065    2.8670974    7.5670397  0.029408099 
  120800    2.9793551   0.15846782    2.9248104    7.5500763 0.0098851189 
  121000    2.9947085   0.14513628    2.9221416    7.5570945  0.025031596 
  121200    2.9493044   0.13570065    3.0057958    7.5632411  0.020455028 
  121400      3.02219   0.15361894     2.900943    7.5855803   0.03002865 
  121600    2.9973611   0.15091159    2.9351562    7.5798614  0.021383382 
  121800    2.9872927   0.13665664    2.9820891    7.5974443  0.032927802 
  122000    3.0314078   0.14082469    2.9015376    7.5872004  0.026975383 
  122200    2.9664937   0.16504137    2.9840104    7.5965675  0.010060915 
  122400    3.0214729   0.16300314    2.8920257     7.584972  0.026917818 
  122600    2.9870557   0.16165858    2.9552249    7.5952267  0.015995997 
  122800    3.0260146   0.15822611    2.9235114    7.6184898  0.039013723 
  123000    2.9764326   0.14682817    2.9938873     7.603132  0.034499252 
  123200    2.9568327   0.14497096    3.0537419    7.6317442  0.032964286 
  123400    3.0342437   0.15334173    2.9384177    7.6408493  0.031730001 
  123600    3.0051284   0.14891562    2.9807685    7.6351229  0.016688061 
  123800    3.0680871   0.13142348    2.8876847    7.6189377  0.014561433 
  124000    3.0922498   0.13200674    2.8579942    7.6260565  0.019044405 
  124200    3.0398837   0.14848674    2.9328392    7.6388716  0.015868097 
  124400    3.0450703    0.1618221    2.9146642    7.6418081  0.036794852 
  124600    3.0202696   0.16381098    2.9302066    7.6221568  0.035597842 
  124800     2.975358   0.15717384    3.0255828    7.6435622  0.024271571 
  125000    2.9905286   0.14109675    3.0076729    7.6323197  0.021478326 
  125200    3.0214182   0.14743272    2.9696506    7.6469445  0.020976315 
  125400    3.0191204    0.1508524    2.9669805    7.6442492 0.00051642159 
  125600    3.0757394   0.15183049    2.8795486    7.6426813  0.019773525 
  125800    3.0364353   0.14376869    2.9556008    7.6517451  0.026486958 
  126000    3.0336526   0.14255498    2.9631653    7.6539239  0.020100805 
  126200    3.0939804   0.13216917    2.8830306    7.6538498  0.033058183 
  126400    3.0430161   0.14075967    2.9642055     7.667207  0.037475262 
  126600    2.9933476   0.13142775    3.0483542    7.6675584  0.016007113 
  126800    3.0680377   0.13729176    2.9408043    7.6778516  0.044365539 
  127000    3.0290624   0.15079047    2.9681637    7.6602759  0.013935304 
  127200    3.0471206   0.15829217    2.9036469    7.6303346  0.022212058 
  127400     3.052387   0.14742333    2.9185364    7.6422509 0.0041692268 
  127600    3.1013951   0.15067022    2.8434207    7.6438575  0.017299926 
  127800    3.0126395   0.15022179    2.9727899    7.6397114  0.016238536 
  128000    3.0317066    0.1496114    2.9430143    7.6379117  0.023357316 
  128200    3.0532946   0.15095315    2.9214563    7.6500614  0.028211367 
  128400    3.0445953   0.14798202    2.9593774    7.6719688  0.022552279 
  128600    3.0838055   0.13547718    2.9324918    7.6913644  0.023202782 
  128800    3.0599061   0.14350739    2.9811591    7.7122307  0.017774792 
  129000    3.0856843   0.15383226    2.9177196    7.6977639  0.024818315 
  129200      3.10607   0.14755871    2.9001511    7.7044853  0.017410638 
  129400    3.1085234   0.14337519    2.8914541     7.695283  0.027266703 
  129600    3.0408269   0.15265564    3.0126371    7.7242525   0.01316462 
  129800    3.0797885   0.15073633    2.9625832    7.7306924  0.026878404 
  130000    3.0907035   0.14112328    2.9485547    7.7234152  0.012576202 
  130200    3.0832728   0.13479888    2.9679919    7.7253875  0.032240261 
  130400    3.0116365   0.13140101     3.057613      7.70421  0.024824031 
  130600    3.0013987   0.14894571    3.0479268    7.6967196  0.030902376 
  130800     3.025632   0.15158115    3.0232606    7.7110205  0.020621129 
  131000    3.1020106   0.14437925    2.9119764    7.7070451  0.027192756 
  131200    3.0217354   0.14986545    3.0041062    7.6843084  0.020290196 
  131400    3.0243226   0.15690872    2.9958124    7.6869367  0.025492523 
  131600    3.0455438   0.15024285    2.9570284    7.6733028  0.015035208 
  131800    2.9957895   0.14246264    3.0352793    7.6691794   0.03475954 
  132000     2.986038   0.14152567    3.0561333    7.6744764   0.01435435 
  132200    3.0728506   0.14349856    2.9389627    7.6894325  0.028760962 
  132400    2.9810096    0.1506761    3.0826071    7.7025619  0.019140559 
  132600     3.069421   0.15268935    2.9458644    7.7003833  0.037468817 
  132800    2.9823983   0.14782508    3.0985751    7.7177609  0.027062796 
  133000     3.109074   0.13886249    2.9208292    7.7209709  0.019553585 
  133200    3.0920795   0.14097809    2.9425674    7.7193457  0.019133313 
  133400    3.1328294    0.1494962    2.8791514    7.7255421  0.028461801 
  133600    3.0409029   0.14932612    3.0087361     7.717136  0.011393507 
  133800    3.0776043   0.15015292    2.9591151    7.7233663  0.023732854 
  134000    3.0593378   0.15651996    2.9471686    7.6904008  0.027789089 
  134200    3.0129204   0.16413641    3.0263803    7.7076377   0.02331229 
  134400    3.0302928   0.15986607    2.9865465     7.689579  0.022003052 
  134600    3.0139055   0.14563488    3.0044568    7.6686896  0.023914653 
  134800    3.0919344   0.14464065    2.8984777    7.6787011  0.031826697 
  135000    3.0738589   0.15113315    2.9532987    7.7129149  0.028142451 
  135200    3.0916664   0.15498425     2.931962    7.7221271  0.035679014 
  135400     3.021755   0.16307247    3.0343744     7.727813  0.039581903 
  135600    3.0401844   0.16152295    3.0115572    7.7310766  0.031840895 
  135800    3.0390275   0.14532965     3.034945    7.7365367  0.029447911 
  136000      3.05977   0.14175699    3.0198839    7.7490011  0.023341502 
  136200    3.0370164   0.14156382    3.0584395    7.7532502  0.031668772 
  136400    3.0357417   0.13886028    3.0520148    7.7422108  0.018373466 
  136600    3.0210181   0.14079839    3.0693314    7.7393911  0.011717982 
  136800     3.069611   0.14754914    3.0008444    7.7505078  0.017292702 
  137000    3.1019221   0.14208705    2.9638427    7.7564865  0.013000232 
  137200    3.0581203   0.13895885    3.0260456    7.7498914  0.030063962 
  137400    3.0264961   0.14593345    3.0523845    7.7357923   0.02864673 
  137600    3.1053537   0.14930192    2.9499416    7.7549451  0.038786776 
  137800    3.0443566   0.14376232    3.0488682    7.7568821  0.013695021 
  138000    3.1162489   0.13534787    2.9594089     7.766793   0.03295015 
  138200    3.0562678   0.13687806    3.0615776    7.7805652 0.0054066335 
  138400    3.0991487   0.13514513    3.0043301    7.7858739  0.023308404 
  138600    3.1249258   0.14077898    2.9552081     7.781032  0.026219211 
  138800    3.0928746   0.15081797    2.9930916    7.7809018  0.033947603 
  139000    3.0811916   0.14485263    2.9976781    7.7620072   0.03145359 
  139200    3.1135403   0.13401563    2.9570172    7.7590082  0.032861596 
  139400    3.0951774   0.14423768    2.9702792    7.7549615  0.024116077 
  139600    3.1162323   0.15022541     2.965151    7.7873878  0.031970716 
  139800    3.0629675   0.14653284    3.0359079    7.7745947  0.012330986 
  140000     3.087915   0.14553986     3.003849    7.7789454  0.034623422 
  140200    3.1139564   0.13727717    2.9481823    7.7540586  0.026608208 
  140400    3.0511345   0.13548663    3.0268317    7.7367317   0.02355584 
  140600    3.0556086   0.15081076    3.0086876    7.7406195   0.01864924 
  140800    3.0600405    0.1442557    2.9973587    7.7293801  0.028704866 
  141000    3.1026895   0.13020114    2.9695985    7.7515069  0.022423723 
  141200     3.031031   0.13962723    3.0825069    7.7664073  0.015063125 
  141400    3.0537364   0.14438655    3.0161934    7.7388943  0.028320902 
  141600    3.0450219   0.14116629    3.0440257     7.750441  0.039032942 
  141800    3.0442042   0.13172317    3.0700644    7.7658108  0.031797789 
  142000    3.0543121   0.13081781    3.0423007    7.7522959  0.018830156 
  142200     3.082915   0.13964817    2.9744331    7.7361415  0.031331712 
  142400    3.0371787   0.15502873    3.0409914    7.7495104 0.00071104776 
  142600    3.0307457   0.15361487    3.0502872    7.7477475  0.022871331 
  142800    3.0148996   0.15157531    3.0473104     7.718974  0.017826825 
  143000    3.0441998   0.14723343    3.0186377    7.7298878  0.021960587 
  143200    3.0578087    0.1542675    3.0012733    7.7399604  0.022849016 
  143400    3.0876283   0.15557471    2.9712915     7.755993  0.030198292 
  143600     3.048892    0.1525892    3.0357825    7.7594231  0.020045802 
  143800    3.0773836   0.14621835     2.992323    7.7523086  0.045844743 
  144000    3.0454545   0.14313042    3.0351317    7.7441598   0.01002429 
  144200    3.1050057   0.13913625    2.9587708    7.7530869  0.050172327 
  144400    3.0215337   0.13270993    3.1096404    7.7723848  0.027054233 
  144600    3.0998067   0.15433339     2.978613    7.7803315  0.021998408 
  144800    3.0522531   0.15332968    3.0693523    7.7987724 0.0063015534 
  145000    3.1141455   0.13963757    3.0068663    7.8153865  0.022510896 
  145200    3.1027584   0.13742101    3.0283827    7.8176142  0.022520741 
  145400    3.0707082    0.1397257    3.0796158    7.8231007  0.026146215 
  145600    3.1007762   0.14331096    3.0407267    7.8328764  0.014552506 
  145800     3.111172   0.15226475     3.019915    7.8366043  0.021026754 
  146000    3.0468435   0.16261862    3.1057259    7.8363247   0.02488955 
  146200    3.0739959   0.15981882    3.0681679    7.8366751  0.038641801 
  146400    3.0692416   0.15170164    3.0438393    7.7971014  0.045371439 
  146600    3.0712253   0.16507418    3.0125119    7.7821206  0.027660545 
  146800     3.068382   0.15481656    3.0167738    7.7718621  0.038430106 
  147000    3.0674668   0.14738295    2.9877645     7.734047  0.023647099 
  147200    3.0097694   0.14413043    3.0604812    7.7170083  0.006761295 
  147400    3.0475957    0.1608441    2.9716535    7.7016055  0.027362483 
  147600    2.9669223   0.15793887    3.1163707    7.7224679  0.019445299 
  147800    2.9920078   0.16771945    3.0635819     7.717069  0.030208628 
  148000    3.0657685   0.17272993    2.9766967    7.7457801  0.036598077 
  148200    3.0155692   0.16072434    3.0643525     7.746169  0.020840703 
  148400    3.0088189   0.16308056    3.0635965    7.7376488  0.017069663 
  148600    3.0496142   0.15701891    3.0049711    7.7341241  0.025781025 
  148800    3.0823641   0.14964996    2.9640013    7.7348857  0.016291958 
  149000    3.0661813   0.15489478    2.9950635    7.7469306   0.03713625 
  149200    3.0377356   0.14764677    3.0343808    7.7363526  0.026251202 
  149400    3.0486268    0.1494331    3.0073997    7.7274864  0.021860163 
  149600    3.0999537   0.13697701    2.9503352    7.7349178  0.025689789 
  149800    3.0419069   0.14320716    3.0121357    7.7159217  0.014566799 
  150000    3.0831194   0.15050368    2.9353793    7.7082498  0.019389456 
  150200    3.0654122      0.14716    2.9760873    7.7190665  0.017764018 
  150400    3.0312111    0.1496552    3.0256603    7.7198588  0.030524593 
  150600    3.0949781   0.15073663    2.9157756    7.7066582  0.026692198 
  150800    3.0992151   0.14877126    2.9179059    7.7131754  0.033534665 
  151000    3.0319563   0.14998081    3.0124065    7.7080478    0.0271502 
  151200    2.9974219    0.1618844    3.0664889    7.7222582 0.0066597051 
  151400    3.0566202    0.1785272    2.9347337    7.6958987  0.029389795 
  151600    3.0553993   0.15905512    2.9641308    7.7039933   0.02498192 
  151800     3.068645   0.14992608    2.9633216    7.7139137  0.016866448 
  152000    3.1329406   0.14670832    2.8532781    7.6970477  0.044205436 
  152200    3.0526776   0.14615391    2.9750084    7.6978892  0.019179786 
  152400    3.0583464   0.13878155    2.9402502    7.6642576   0.02860275 
  152600     3.063199   0.13161469    2.9463297    7.6704456  0.024528573 
  152800    3.0369559   0.13652186    2.9885818    7.6782598  0.026873968 
  153000    3.0485834   0.14192429    2.9732635    7.6857764  0.012928808 
  153200    3.0748761   0.15280447    2.9278821    7.6906947   0.03433324 
  153400    3.0649889   0.15665252    2.9482719     7.700109  0.029654941 
  153600    3.0744873   0.15090508    2.9254127    7.6857429  0.021213785 
  153800    3.0882334   0.14083934    2.9095799    7.6804532   0.03220281 
  154000    3.0344599   0.14615431    2.9947348    7.6903031   0.02402525 
  154200    3.0443999   0.16927778    2.9235967     7.657191  0.021046643 
  154400    3.0165855   0.14472527    3.0285164    7.6958575  0.023496836 
  154600    3.0731874   0.14037178    2.9538744    7.7017223  0.036789813 
  154800    3.0659838   0.14345302    2.9634415    7.7035707  0.024567006 
  155000    3.0216063   0.14878519    3.0224277    7.7013561  0.036208359 
  155200     3.061858   0.14590344    2.9651992    7.7015932  0.030767982 
  155400    3.0434044    0.1530327    2.9891948    7.7050514  0.019492743 
  155600    3.0819295   0.13918754    2.9241256     7.683896  0.024716199 
  155800    3.0773607   0.14116055    2.9422435    7.6971371  0.030398015 
  156000    3.0184047   0.14804268    3.0111712    7.6845571  0.010144512 
  156200    3.0918716   0.14474604    2.9133297    7.6935642  0.032176741 
  156400    3.0480779   0.14224596    3.0043534    7.7164301  0.014776793 
  156600     3.054151   0.15643761    2.9740936    7.7094671  0.031034074 
  156800    3.1320249   0.14948292    2.8855396    7.7307108   0.03774849 
  157000    3.0505188   0.13991859    3.0094864    7.7228953  0.018469419 
  157200    3.1023563   0.14163383    2.9163192    7.7091607  0.048828564 
  157400    3.0342776   0.15217011    3.0272325    7.7285433  0.014386783 
  157600    3.1065591   0.15810516     2.902853    7.7184669  0.028921339 
  157800    3.0394334   0.14142238    3.0342565    7.7325494   0.01350676 
  158000    3.0531006    0.1518273    2.9988017    7.7279901     0.023551 
  158200    3.0916812   0.15247617    2.9536433    7.7413224   0.03593824 
  158400    3.0672962    0.1513035    2.9733193    7.7232666  0.010203308 
  158600     3.109012   0.14399297     2.883035    7.6882143  0.034650603 
  158800    3.0855458   0.14083478    2.9113336    7.6781729  0.033595407 
  159000    3.0697162   0.14361544    2.9294955    7.6753829  0.031382468 
  159200    3.0278994   0.15529477     2.984796    7.6796689  0.022972172 
  159400    3.0362006   0.15465317    2.9823512    7.6890281   0.01649811 
  159600    3.0704857    0.1571936    2.9444632    7.7050825  0.014501649 
  159800    3.0991126   0.14755664    2.9218375    7.7157387  0.026005929 
  160000    3.0575771   0.15570433    2.9637456    7.7035225  0.031116365 
  160200    3.0867722   0.15518909    2.9317942    7.7148265  0.025111949 
  160400    3.0172015   0.14484741    3.0389459    7.7073327  0.010964018 
  160600    3.0711449   0.14931103    2.9523548    7.7060798  0.030465705 
  160800    3.0309804   0.16498573    3.0170149     7.726198  0.012803019 
  161000    3.0854381   0.16301441     2.978005    7.7668625  0.026230083 
  161200    3.0619614   0.14649429    2.9997451    7.7368851  0.017201784 
  161400    3.0793663   0.13344127    2.9854734    7.7356546  0.024192318 
  161600    3.0927487   0.15003716    2.9642062    7.7510468  0.029853139 
  161800      3.05503   0.13995326    3.0265905    7.7467975  0.012393775 
  162000    3.1130762   0.14175008    2.9285619    7.7375915  0.032587857 
  162200    3.1175546   0.15168821    2.9241775    7.7498595  0.031623249 
  162400    3.0985701   0.15505225    2.9590885     7.759672  0.016608291 
  162600    3.0638591   0.15611261    3.0050581    7.7546614  0.025777115 
  162800    3.0675241   0.14747886    2.9928427    7.7393071  0.027199878 
  163000    3.0872383   0.14938985    2.9611432     7.739075  0.016673977 
  163200    3.0836049   0.15780349    2.9496951    7.7305932  0.025320341 
  163400    3.0546798   0.16284368    3.0094932    7.7520656  0.018864933 
  163600    3.0737497   0.15935907    2.9638192    7.7314975  0.013559035 
  163800    3.0832918   0.14759491    2.9397256    7.7099458  0.026017239 
  164000    3.0431808   0.14188898    2.9874741    7.6918518  0.016361414 
  164200    3.0125803   0.14410025    3.0333061    7.6940175  0.027148933 
  164400    3.0834986   0.14744002    2.9384086    7.7087839  0.021038467 
  164600    3.0931749   0.14774113    2.9313811    7.7165647  0.028804039 
  164800    3.0947157   0.14133911    2.9498983    7.7309898   0.02521383 
  165000    3.0735178   0.14171391    2.9819426    7.7316282  0.032584702 
  165200    3.0569084   0.14497566    2.9955133    7.7235589  0.029409852 
  165400    3.0708288   0.15423925    2.9833087    7.7414881  0.024783084 
  165600    3.1172781   0.14579664    2.9351188    7.7544946  0.023712363 
  165800    3.0601766   0.13122232    3.0157282    7.7349203  0.017175053 
  166000    3.0311288   0.13871307    3.0369952    7.7201282  0.031962717 
  166200    3.0597172   0.13824645    2.9949308    7.7204582  0.029915492 
  166400    3.0527228   0.14458818    2.9914841    7.7128669  0.021737434 
  166600    3.0685055   0.14021235    2.9794293    7.7200984  0.027538419 
  166800    3.1113471   0.14202431    2.9279639    7.7346754  0.041494969 
  167000    3.0599291   0.14735557     3.024843    7.7597974  0.032101068 
  167200     3.051697   0.15835295    3.0129387    7.7465484  0.034571898 
  167400    3.0783159   0.15214365    2.9941656    7.7614743  0.025793019 
  167600    3.0716859   0.15558344    3.0017309    7.7625395   0.01588732 
  167800    3.0859992   0.15225961    2.9805042    7.7594481  0.019136711 
  168000    3.0970799   0.14732583    2.9608675    7.7514904  0.027139741 
  168200    3.0263021   0.13307416    3.0874135     7.757671  0.016671162 
  168400    3.1075292   0.13721959    2.9563588    7.7525415    0.0293014 
  168600    3.1119394   0.14560197    2.9599328    7.7711098   0.02451772 
  168800    3.0556232   0.13986778    3.0219705    7.7429814  0.023935346 
  169000    3.0687119   0.14360153    2.9682542     7.712622  0.017714831 
  169200    3.0503662   0.14950758    3.0029715    7.7257405  0.025525026 
  169400    3.0728295   0.13288476    2.9700319    7.7098563  0.019440411 
  169600    3.0685268   0.13271143    2.9720417    7.7052419  0.032850255 
  169800    3.0960346   0.13324302    2.9246194    7.6995923  0.023552969 
  170000    3.0325132   0.15248339    2.9738329    7.6728116  0.032296805 
  170200    3.0489144   0.14160557    2.9849182    7.6976087  0.026017319 
  170400    3.0663632   0.14311721    2.9561079    7.6964701  0.019229576 
  170600    3.0244333   0.14960777    3.0338288    7.7178182  0.025491494 
  170800    3.0107452   0.15877448    3.0509058      7.72354  0.019844371 
  171000    3.0613962   0.14865516    2.9845541    7.7230076  0.023784498 
  171200    2.9946652   0.14534551    3.0934255    7.7285228  0.015664048 
  171400    3.1064529   0.14470637    2.8949664    7.6970222  0.028796996 
  171600    3.0241165   0.13333895    3.0343066    7.7015522  0.022074975 
  171800    3.0494071   0.13252573    2.9777442    7.6820935  0.023226287 
  172000    3.0384581   0.13702556    2.9819391     7.674373  0.020643016 
  172200    3.0448496    0.1376341    2.9727536    7.6753785  0.035730854 
  172400    2.9825434   0.13314025    3.0851353    7.6898538  0.014252495 
  172600    3.0126785   0.13068807    3.0347422    7.6821885 0.0082026003 
  172800    3.0291252   0.14041233    2.9778356    7.6596639  0.023257373 
  173000    3.0092952    0.1524564    2.9744997     7.638642  0.018579882 
  173200    3.0807096    0.1511397    2.8802152    7.6501087  0.010936496 
  173400    3.0328179   0.14529038    2.9616025    7.6538451  0.012341271 
  173600    3.0482715   0.15321016    2.9346446    7.6579759  0.030333255 
  173800    2.9869972   0.14408802    3.0082978    7.6306414  0.010667788 
  174000    3.0460666   0.14960051     2.927954    7.6443699  0.038565789 
  174200    3.0136896   0.14721439    2.9618365     7.627325  0.015126477 
  174400    3.0549032    0.1471932    2.8869135    7.6141703  0.026145552 
  174600    2.9966328    0.1384364    3.0008975    7.6320356 0.0099934017 
  174800    3.0899967   0.13831883    2.8504195    7.6214159  0.034002742 
  175000     2.982155   0.14788962    2.9988606    7.6177461 0.0098955326 
  175200    3.0033103   0.15428719    2.9573343    7.6143345  0.027079076 
  175400    2.9982621   0.15183185    2.9759047    7.6228809  0.018088412 
  175600    3.0187133   0.13109322    2.9766412    7.6335403  0.013407983 
  175800    3.0068804     0.129593    2.9648206    7.6024791  0.019026871 
  176000    3.0144061   0.14489712    2.9289252    7.5931707  0.025673206 
  176200    3.0586207   0.14338045     2.884552    7.6135696  0.014057168 
  176400    3.0709406     0.152635    2.8580514    7.6147941  0.018555694 
  176600    3.0216695   0.14557622    2.9379025    7.6137168  0.016024739 
  176800    3.0696025   0.12984908    2.8689033     7.600854  0.028060177 
  177000    2.9630033   0.14009162    3.0378044    7.6201787  0.014542877 
  177200    3.0552797    0.1410896    2.9080273     7.629745  0.035595975 
  177400    3.0324989   0.14668691     2.936129    7.6292899   0.02125319 
  177600    2.9745251   0.15463029    3.0121735    7.6263605  0.033154575 
  177800     2.997932   0.14829821    2.9858384    7.6287861  0.033214788 
  178000    2.9941284   0.16021186    2.9775982    7.6267572   0.03665598 
  178200    3.0417899   0.14607452    2.9188655    7.6253435  0.030622203 
  178400    2.9916077    0.1319571    2.9920056    7.6091306  0.016826883 
  178600    2.9924518   0.13297943    2.9859065    7.6053194  0.022624181 
  178800    3.0146045   0.13738017    2.9456578    7.6026838  0.024747323 
  179000     3.034994   0.14305756    2.9228611    7.6161335  0.026818775 
  179200    3.0480068   0.14133324    2.9096321    7.6206895  0.025509317 
  179400    3.0150689   0.13537152    2.9787996    7.6345131  0.017789145 
  179600     3.042492   0.15305416    2.9144541    7.6289644  0.028407466 
  179800    2.9700854     0.153842    3.0358046    7.6425472 0.0077541785 
  180000    3.0272619   0.14939057     2.957108    7.6451211  0.031609691 
  180200    3.0121662   0.14416725      2.98436    7.6445174  0.023947026 
  180400    3.0303753   0.13436677    3.0016325    7.6792895  0.025972289 
  180600    3.0390686   0.13085388    3.0143825      7.70156  0.013848852 
  180800    3.0681819   0.13492663    2.9609363    7.6958346  0.038356388 
  181000    3.0372602   0.13238589    2.9957946    7.6817929  0.016769056 
  181200    2.9970847   0.14024376    3.0489998    7.6826228 0.0091834797 
  181400    3.0354577   0.13984406    2.9779185    7.6686725  0.017997847 
  181600    3.0395618   0.15927366    2.9599224    7.6762591  0.027989154 
  181800    3.0136145   0.14727779    3.0189571    7.6843965  0.011771698 
  182000    3.0594949   0.14237907     2.963453    7.6927798  0.012767733 
  182200    3.0655654     0.137429    2.9489809    7.6824589  0.025351069 
  182400    3.0355094   0.13439476    3.0072515    7.6926337  0.020255952 
  182600    3.0217666   0.13904508    3.0111841    7.6806127  0.027458882 
  182800    3.0448149   0.14476812    2.9516123    7.6613191  0.025312633 
  183000    2.9713272   0.14356104    3.0398894    7.6382128  0.031182113 
  183200    3.0549273   0.14703544    2.9422818     7.669417  0.035755803 
  183400    3.0287944   0.14044271    3.0033004     7.684663 0.0062051387 
  183600    3.0932523   0.14319235      2.92776    7.7085108  0.020566489 
  183800     3.048329   0.14595981    2.9999449     7.716112   0.01718626 
  184000    3.0657535   0.14225944    2.9522711    7.6908614    0.0239628 
  184200    3.0476558    0.1521448    2.9562797    7.6776224  0.019525017 
  184400    2.9954824   0.15675061    3.0378518    7.6855794   0.03427381 
  184600    3.0240435   0.14882371    2.9875376    7.6701585  0.032411559 
  184800     3.016855   0.15341483    2.9952392    7.6716739  0.035095278 
  185000    2.9931716   0.15029554    3.0385667    7.6763748  0.038907477 
  185200     3.057651    0.1395182    2.9320947    7.6557962  0.034394091 
  185400    3.0566546   0.14601579    2.9248483    7.6535535  0.019349139 
  185600    3.0438287   0.13943452    2.9352732     7.638168  0.010911087 
  185800    3.0503578   0.14335234    2.9094136    7.6260149   0.01867473 
  186000    3.0622247   0.14755738    2.8924932    7.6310909   0.03578687 
  186200    3.0188354   0.13859678    2.9772246    7.6418104  0.010837307 
  186400    3.0653401   0.14272775    2.9212078    7.6596468   0.03168035 
  186600    3.0517601   0.14044142    2.9525551    7.6683479  0.025353894 
  186800    2.9853184   0.14389098     3.042913    7.6625426  0.018257305 
  187000    3.0595343   0.15981733    2.8999744    7.6467985  0.040048402 
  187200    3.0077082   0.15739006     2.971197    7.6378935  0.037126547 
  187400     3.004166   0.16063987    2.9693066    7.6339423  0.020469849 
  187600    3.0420704   0.15792415    2.9008686    7.6196168  0.025422599 
  187800    2.9973682   0.14796841    2.9858115    7.6275842  0.032521078 
  188000    3.0342629   0.15010064    2.9128468    7.6120662  0.028527296 
  188200     3.032671   0.15113849    2.9294102    7.6272806  0.015018347 
  188400    3.0763929   0.14479704    2.8686014    7.6256804  0.019263525 
  188600     3.030445   0.15430763     2.901972    7.5996743  0.031087851 
  188800    3.0367844   0.14296392    2.9143918    7.6102548  0.030471649 
  189000    2.9772918   0.14061874    3.0008593    7.6051827  0.030222448 
  189200    3.0733942   0.12802147    2.8575646    7.5933723  0.017996529 
  189400    3.0685131   0.14090402    2.8540138    7.5953862  0.022127737 
  189600    3.0001617   0.14115366    2.9600013    7.5991474  0.008805864 
  189800    3.0208467   0.13519114    2.9455861    7.6097816 0.0078601367 
  190000    3.0496723   0.13515602    2.9167653    7.6241425  0.027925139 
  190200    3.0087245   0.14431375    2.9715662    7.6267101  0.032054262 
  190400    3.0619753   0.14867222    2.8968553     7.636194  0.023278331 
  190600    3.0127713   0.14642705    2.9786722    7.6419966  0.037072077 
  190800    3.0215373   0.14205447    2.9469538     7.619048  0.021876387 
  191000    3.0667781   0.14628925    2.8975203    7.6416766  0.024655071 
  191200    3.0556742    0.1393151    2.8991669    7.6197016 0.0092575545 
  191400     3.016352   0.14356823    2.9348569    7.6006909   0.01849329 
  191600    3.0321835   0.14824262    2.8878042     7.582048  0.022943191 
  191800    2.9705072   0.14708043    2.9890396     7.589653 -0.00090421184 
  192000    2.9913454   0.14883706    2.9372471    7.5708587   0.01907776 
  192200    3.0387631   0.14016855     2.845155    7.5411891  0.031515114 
  192400    2.9761326    0.1408343    2.9756547    7.5784557   0.01690917 
  192600    2.9529561   0.14712765    2.9953948    7.5697419 0.0045378764 
  192800    2.9800967   0.14510512    2.9701919    7.5832071  0.017421005 
  193000    2.9584021   0.14824071    3.0050247    7.5886497  0.025964395 
  193200    3.0146864   0.14682152    2.9346435    7.6012336  0.033751151 
  193400    3.0012742   0.14815049    2.9499688    7.5977796  0.018402055 
  193600     2.991002    0.1447763    2.9800722    7.6091083  0.022436181 
  193800    2.9582032   0.14379895    3.0514578    7.6303429  0.015466696 
  194000    3.0618982   0.15459673    2.8907419    7.6358895  0.035078836 
  194200    3.0383355   0.14643091    2.9462194    7.6478749   0.01616175 
  194400    3.0278294   0.13909021    2.9666413    7.6452047  0.014955018 
  194600    3.0351831    0.1547127    2.9557594    7.6609703  0.016576672 
  194800    3.0502881   0.13681612    2.9533262    7.6632867  0.019105905 
  195000     3.046007   0.13300212    2.9655556    7.6652837  0.014776004 
  195200    3.0920612   0.14365001    2.9015364    7.6809592  0.019429976 
  195400    3.0622671   0.14086182    2.9484275    7.6803932  0.018365544 
  195600    3.1044771   0.14533145    2.8501895    7.6499083  0.022976158 
  195800    3.0157945   0.14362524    2.9721404    7.6371956  0.018216296 
  196000     2.970551   0.13711068    3.0260608      7.61677  0.023967948 
  196200    2.9881421   0.14155107    2.9802346    7.6017577  0.018917206 
  196400    3.0662227   0.14474043    2.8838453    7.6256202  0.021420216 
  196600    3.0377904    0.1366342    2.9141316    7.6051731  0.022683184 
  196800    2.9860964   0.15206654    2.9468598    7.5758313  0.030676785 
  197000     3.026415   0.14455024    2.8947029    7.5766058  0.029494911 
  197200    3.0192917   0.14842224    2.9013656    7.5764609  0.036047081 
  197400    3.0028927    0.1514064    2.9224501    7.5759434  0.023789218 
  197600    3.0227639   0.14682049    2.9259964    7.6046956   0.02329235 
  197800    3.0091804    0.1569894    2.9435922    7.6120954  0.023113419 
  198000     3.002669   0.15233842    2.9570828    7.6111728  0.030538702 
  198200    2.9960297   0.14232681    2.9826354    7.6167598  0.016897008 
  198400    3.0253234   0.13185087    2.9282456    7.5958126  0.018834444 
  198600    3.0574859   0.12942319    2.8769744    7.5903332  0.018257989 
  198800    3.0482792   0.13459414    2.8815975    7.5863242  0.022095534 
  199000    3.0291129   0.14715391    2.9070591    7.5956105  0.016709409 
  199200    3.0581823   0.14896778    2.8525068    7.5864544  0.040864202 
  199400    2.9957219   0.15032903    2.9685784    7.6102435  0.024619223 
  199600    3.0188574   0.14006128    2.9016268      7.56771  0.025259631 
  199800    2.9766614   0.14657934    2.9648247    7.5741637  0.021821157 
  200000    3.0190677   0.14562054     2.938131    7.6100888  0.022485014 
  200200    3.0359711   0.14984476     2.897056    7.5985804   0.01841359 
  200400    3.0087379   0.16146027    2.9467496    7.6190601  0.026018917 
  200600    3.0100355   0.15283859    2.9533646    7.6189989  0.029262647 
  200800    3.0034842   0.15436235    2.9670646    7.6244006  0.032097129 
  201000    2.9798792   0.14092069    3.0187431    7.6272478  0.025214984 
  201200    3.0062634   0.13425174    3.0028513    7.6442434 0.0091505708 
  201400    3.0256897    0.1400851    2.9486971    7.6250475  0.031756858 
  201600    3.0076559   0.14620567    2.9799792    7.6354129    0.0206204 
  201800    3.0066512   0.14569596    3.0073386    7.6607564  0.028179656 
  202000    3.0131016   0.14954286    2.9867472    7.6536827  0.016357287 
  202200    3.0384587   0.13881212    2.9566354    7.6508567  0.020751236 
  202400    3.0110818   0.13593505    2.9965345     7.646834  0.018499404 
  202600     3.045759   0.14080281    2.9227574    7.6299144  0.029441392 
  202800    3.0134006    0.1317498    2.9665818    7.6161724  0.021178641 
  203000    3.0353114   0.14121559     2.916525    7.6084312  0.022321939 
  203200     3.010591   0.15173622      2.94821    7.6135748  0.018641157 
  203400    3.0470771   0.15340284    2.8872707    7.6090039  0.031539195 
  203600    3.0081563    0.1516502    2.9564694     7.618098    0.0202323 
  203800     2.981278   0.17019684    2.9830315    7.6229094  0.016676746 
  204000    3.0154139    0.1486734    2.9616081    7.6311407  0.026860598 
  204200    2.9873186   0.15058631    2.9980823     7.627406   0.02369767 
  204400    3.0596391   0.14356325    2.9159314    7.6466586   0.03528512 
  204600    3.0864211         0.14    2.8931174    7.6604342  0.032380156 
  204800    3.0190779   0.13765282    2.9725902    7.6365955  0.025213822 
  205000    3.0759973   0.13143882    2.9053733     7.648501  0.011543905 
  205200    3.1115025   0.14084255    2.8350944    7.6408572  0.030186256 
  205400    3.0563512   0.14258484     2.924176    7.6489953 0.0062662116 
  205600    2.9915757   0.14627623    3.0070822    7.6384783  0.015593111 
  205800    3.0427442   0.13998427    2.9468812    7.6486997   0.03420216 
  206000    3.0599033   0.13956309    2.9121474    7.6392705   0.02903958 
  206200    3.0727776   0.13231807    2.9226285    7.6618085  0.026211344 
  206400    3.0352401   0.14120775    2.9770997    7.6688912  0.017740676 
  206600    3.0232945   0.14568565    2.9749342     7.653294  0.018387306 
  206800    3.0462392    0.1515049    2.9601958    7.6787749  0.018564105 
  207000     3.070031   0.14743306     2.916948     7.667125  0.014687946 
  207200    3.0427037   0.14507799    2.9392994    7.6461509  0.022494636 
  207400    3.0410401   0.14165056    2.9500746    7.6510045   0.02410163 
  207600    3.0397127   0.14421601    2.9627029    7.6642081  0.019462215 
  207800    2.9857742   0.14435943     3.027633    7.6484144  0.021893595 
  208000     3.040763   0.13726575    2.9336582    7.6297879  0.027517074 
  208200    3.0642421   0.13802917    2.8929484    7.6250425  0.026756407 
  208400    2.9830995   0.14549649    2.9954763    7.6133846  0.015381524 
  208600    3.0129775   0.13720003    2.9427167    7.5971233  0.018011708 
  208800    3.0479977   0.14413653    2.8726833    7.5865304  0.020303406 
  209000    2.9513714   0.14181074    3.0272871    7.5939414 0.0047055007 
  209200    2.9807744   0.15200555    2.9854414     7.606373 0.0046384621 
  209400    3.0164106   0.14677427    2.9309244    7.6000522  0.031684658 
  209600    2.9383853   0.14375998    3.0430092    7.5921434  0.028039243 
  209800     3.036697   0.14702614    2.8583215    7.5581156  0.038791355 
  210000    3.0296478   0.15556333    2.9225795    7.6203423  0.027349814 
  210200    2.9946586   0.15277491    2.9650197    7.6075365  0.028350784 
  210400     2.937253   0.15489845    3.0369342    7.5955092  0.024874933 
  210600    2.9624477   0.14964494    2.9911177    7.5822125  0.020142254 
  210800    3.0329618   0.14377127    2.8949938     7.585933  0.021101983 
  211000    3.1168671    0.1382795    2.7923178    7.6035603  0.019388454 
  211200    3.0468139   0.13646438    2.9102811    7.6146812  0.013952227 
  211400    2.9956422   0.13360135     2.991466    7.6162839 -0.0055666325 
  211600    3.0615024   0.13166726    2.8944745    7.6160993  0.022383806 
  211800    3.0588335   0.14142988     2.915234    7.6426199  0.024415466 
  212000    2.9702831   0.15086235     3.055604    7.6596633  0.021323102 
  212200    3.0172457   0.15001285    2.9883027    7.6619212  0.023805259 
  212400     2.985507   0.13738374    3.0649969     7.678402  0.014610002 
  212600    3.0293372   0.12926819    3.0119213    7.6829233  0.016112608 
  212800     3.010222    0.1376767    3.0278992    7.6786512  0.013937977 
  213000    2.9832067   0.13616177    3.0731029    7.6818374  0.019272145 
  213200    3.0191412   0.14511898    3.0285151    7.7000815  0.012747593 
  213400    3.0691735   0.14334776    2.9623413    7.7071474  0.034316308 
  213600    3.0470205   0.14929235    2.9916184    7.7091561  0.023200827 
  213800    3.0530438   0.13748599     2.993641    7.7084029   0.01351765 
  214000    3.0793799   0.13316346    2.9504495    7.7003732  0.011547252 
  214200    3.0168009   0.12978116    3.0353615    7.6880815  0.007995337 
  214400    3.0494888    0.1446068    2.9728295    7.6893824   0.02288411 
  214600    3.0899334   0.14735173    2.8898072    7.6697417  0.026391611 
  214800    3.0659926   0.14469293    2.9206338    7.6620161  0.016459247 
  215000     3.099403   0.15327534    2.8850924    7.6851477  0.035644565 
  215200    3.0448595   0.14805594    2.9419443    7.6550059  0.027521963 
  215400    3.0424172    0.1486436    2.9619162    7.6719039  0.031580312 
  215600    3.0547571   0.13874175    2.9584069    7.6769932  0.022138649 
  215800     3.033898   0.14210908     3.004492    7.6951726 0.00045743003 
  216000     3.002413   0.15921147    3.0227026    7.6832817  0.010509101 
  216200    3.0258293   0.14209874    3.0051933    7.6837665  0.022731209 
  216400    2.9716534   0.14177856    3.0993137    7.6963437  0.031391476 
  216600    3.0021992   0.13672641    3.0545167    7.6922902  0.022574232 
  216800    3.0626469   0.14697225    2.9754896    7.7141352  0.034670611 
  217000    2.9832984   0.14174503    3.0901706    7.7046258  0.011227393 
  217200    2.9784811   0.15614408    3.0752741     7.696906 0.0071536862 
  217400    3.0251257   0.14404942    3.0146761    7.6941452  0.019682543 
  217600    3.0655249     0.134456    2.9755674    7.7060117  0.019794234 
  217800    3.0108409   0.13858794    3.0576085    7.7101997  0.013999799 
  218000    3.0852728   0.14892806    2.9346206    7.7091439  0.033620769 
  218200    3.0086116   0.14500471    3.0433609    7.6990266  0.023163285 
  218400    3.0003216   0.15112437    3.0318968    7.6812534  0.031994978 
  218600    2.9874251   0.15211276    3.0354429    7.6664527  0.025935187 
  218800    2.9863672   0.14276335    3.0667317    7.6868062  0.017755542 
  219000    3.0090353   0.13036796    3.0339784    7.6756425  0.024037179 
  219200    2.9944304   0.13978794    3.0428837    7.6720714  0.020102895 
  219400    3.0654874   0.13578347    2.9317432    7.6634587  0.019061401 
  219600     3.064742   0.14704869    2.9166803    7.6585435  0.022426097 
  219800    2.9940496   0.14273269    3.0120172    7.6435789  0.024326418 
  220000    3.0237203   0.13904181    2.9368298    7.6091842  0.022326861 
  220200    2.9898365   0.14282893    2.9866864    7.6120277  0.041876989 
  220400    2.9996469   0.14181235    2.9507198    7.5897527  0.034640581 
  220600    3.0167363   0.14364037     2.955567    7.6220493  0.023916567 
  220800    2.9305214   0.15857863    3.0819931    7.6341559  0.018368432 
  221000     3.004693   0.15828281    2.9605461    7.6236149  0.024029619 
  221200    3.0190295   0.14510648    2.9626022    7.6339886  0.017484418 
  221400    2.9889524   0.14180266    3.0240531    7.6470427  0.021929298 
  221600     3.041437   0.13771315    2.9362775     7.633865   0.02806885 
  221800    2.9836894   0.14884394    2.9948391    7.6169793  0.024181829 
  222000    3.0108986   0.14412588    2.9592769    7.6174926  0.013760938 
  222200    3.0657175    0.1401289    2.8785035    7.6149094  0.017679431 
  222400    3.0042053   0.14613037    2.9622366    7.6124217  0.029524802 
  222600    2.9376819   0.15214587    3.0238532    7.5803186 0.0097834534 
  222800     2.975568   0.14316596    2.9525925    7.5568788  0.020153869 
  223000    2.9971598   0.14002187    2.9193187    7.5528324  0.033761193 
  223200    2.9578228   0.14340437    3.0069153    7.5848356  0.011103806 
  223400     3.026773   0.14145606    2.9165826    7.5959281  0.045579459 
  223600     2.923667   0.14132595     3.070885    7.5955187  0.010487877 
  223800    2.9690771   0.14421625    3.0005798    7.5961849  0.029411804 
  224000    3.0142892   0.15598877    2.9169275    7.5920893    0.0403218 
  224200    3.0004093   0.15463081    2.9519326     7.604927  0.023760586 
  224400    3.0651634   0.15066138    2.9163501    7.6624578  0.034043944 
  224600    3.0826653   0.15642302    2.8855475    7.6636565 -0.0014020927 
  224800     3.015403   0.14938285    2.9772006    7.6474265 0.0091161869 
  225000    3.0663835   0.15583512    2.8858101    7.6389206  0.031011854 
  225200    3.0031257   0.16025713    2.9835867      7.64628  0.012143797 
  225400    3.0680453   0.15989894    2.8913805    7.6510464  0.025745946 
  225600    3.0519176   0.14568531    2.9159762     7.637249  0.021831424 
  225800    3.0335172   0.14483902     2.952177    7.6450166  0.020658405 
  226000    3.0177609   0.14474633    2.9470843    7.6162086  0.019777608 
  226200    2.9553308   0.13652635    3.0489377    7.6162438  0.011592989 
  226400    3.0578591   0.13449942     2.891797    7.6107916  0.036380086 
  226600    2.9794639   0.14146202     3.005817    7.6142403  0.033637673 
  226800    3.0349684   0.14015696    2.9284065    7.6187398  0.034111834 
  227000    3.0196842   0.14270082    2.9411296    7.6110919  0.013535072 
  227200    2.9965982   0.13603629    2.9710266    7.5997127  0.023736023 
  227400    3.0183761   0.14474262    2.9567856    7.6268286   0.02098227 
  227600    3.0341255   0.14390305    2.9253351    7.6181508  0.023842971 
  227800    3.0004767   0.14146718    2.9874907    7.6274227  0.015188186 
  228000    3.0544905   0.13360426    2.9144645    7.6275137  0.015861956 
  228200    3.0836688   0.13586049    2.8829197    7.6419706  0.024510188 
  228400    3.0194711   0.14560149     2.978256    7.6507996  0.025950188 
  228600    3.0300562   0.15468762    2.9501777    7.6476771  0.025357097 
  228800     3.047569    0.1425752    2.9246099     7.636253  0.027965495 
  229000     2.989288   0.13356311    3.0175865    7.6328397  0.028734964 
  229200    3.0237123   0.12894623    2.9635053    7.6257522  0.027388892 
  229400     3.086684   0.13470705    2.8476763    7.6100944  0.025310381 
  229600    2.9980184   0.13886498    2.9733364    7.6069805 0.0063562174 
  229800    2.9980453   0.15375428    2.9341871    7.5827608  0.032844624 
  230000    3.0052309   0.15127641     2.935777    7.5926459  0.019532585 
  230200    3.0170577   0.14171989    2.9273786    7.5924223  0.018176688 
  230400     3.020497   0.14371579     2.912666    7.5848618  0.021539237 
  230600    3.0003409   0.14251787    2.9313081     7.572087  0.033849358 
  230800    2.9328611   0.14846245    3.0213819    7.5669363  0.010986376 
  231000    3.0325084   0.15533455    2.8797401    7.5815629  0.032949629 
  231200     2.986131   0.14511808    2.9789996    7.6010745  0.018007455 
  231400    3.0028351    0.1457763    2.9480688    7.5958456  0.026625566 
  231600    3.0391051   0.13962735    2.9027073    7.5987129  0.024350065 
  231800    2.9915699   0.15045003    2.9626039    7.5981652  0.028232935 
  232000    3.0190753   0.14879159    2.9226747    7.5978149  0.027299283 
  232200    3.0210297   0.15399525    2.9292871    7.6125611   0.01712484 
  232400    3.0466027   0.14267779    2.9040918    7.6143886   0.02705977 
  232600    3.0364391     0.131829    2.9290304    7.6132408  0.015295499 
  232800    3.0612103   0.13485382      2.91663    7.6410034  0.023002937 
  233000    3.0132409   0.14101729    2.9838081    7.6424267  0.016693683 
  233200    3.0196651   0.14318332    2.9991299    7.6695462  0.015403577 
  233400    3.0992828   0.13027382    2.9228263    7.6996999  0.030312379 
  233600    2.9852727   0.14564516    3.0568369    7.6781521  0.019943112 
  233800    3.0844041   0.14181642    2.9224067    7.6885159  0.024542006 
  234000    3.0585574    0.1407145    2.9689769    7.6952336  0.016598762 
  234200    3.0852486    0.1447946    2.9659671    7.7363207  0.021806497 
  234400     3.091609    0.1410092    2.9533082    7.7294122  0.020422778 
  234600    3.0577249    0.1364172    3.0312124    7.7519237  0.019697606 
  234800    3.0925122   0.14972718    2.9791464    7.7653225  0.043485621 
  235000    3.0420365   0.13118005    3.0652635    7.7572168  0.017115034 
  235200    3.1069546   0.14318219    2.9576105    7.7588944  0.048976719 
  235400    3.0233752   0.15299282    3.0680951    7.7538832  0.024869433 
  235600    3.0966994   0.13902699     2.992546    7.7742996  0.029797038 
  235800    3.0576705   0.14534595    3.0297084    7.7592668    0.0219025 
  236000    3.0954785   0.14076371    2.9727147    7.7543746  0.031538436 
  236200    3.0229191   0.14503567    3.0504767    7.7276239   0.01262777 
  236400    3.0501109   0.14958969    2.9832465     7.705715  0.023529627 
  236600    3.0257787   0.16503751    3.0138744    7.7153107  0.012834798 
  236800    3.0563586    0.1545088     2.998329    7.7350834  0.027076452 
  237000    3.1228817   0.15980429    2.8981159    7.7399006  0.025002099 
  237200    3.0634384   0.14785393    3.0141427    7.7548567 0.0094316112 
  237400    3.0635264   0.14528148    2.9848345    7.7231079  0.029509599 
  237600    3.1275622   0.14594613    2.8808561    7.7157999  0.043578983 
  237800    3.0878799   0.14057551    2.9463178    7.7163973  0.035470292 
  238000    3.0571822   0.14605056     2.988008     7.717539  0.019734104 
  238200    3.0534965   0.14652265    2.9742271    7.6987044  0.017031009 
  238400    3.0085861   0.15892147    2.9974856    7.6670298  0.019246203 
  238600    3.0086205   0.16535478    2.9986615    7.6746906 0.0089097553 
  238800    3.0413513   0.14790762    2.9663504     7.674004  0.037545089 
  239000    2.9994411    0.1450933    3.0244682    7.6664736  0.024277979 
  239200    2.9980324   0.15259412    3.0347579    7.6821521  0.047130738 
  239400    3.0353009   0.15237184    2.9891613     7.692208  0.027810807 
  239600    3.0904035   0.14290319    2.9231403    7.6993309  0.019352037 
  239800    3.0628415   0.14124054    2.9643505    7.6975563  0.013339144 
  240000    3.0408633    0.1363814    3.0181101    7.7135058  0.010618763 
  240200    3.0835792   0.13229818    2.9575909    7.7129452   0.02750934 
  240400    3.0354241   0.14569478    3.0322666     7.728821   0.01785824 
  240600    3.1097444   0.15183458    2.9178525    7.7319714  0.027968919 
  240800    3.0321054   0.15319389    3.0136993    7.7127773  0.028245221 
  241000    3.0691472   0.15171924    2.9913687    7.7445069  0.044526323 
  241200    3.0539013   0.14274486    3.0188784    7.7401848  0.012932833 
  241400    3.0572948   0.14844567    3.0093788    7.7414737  0.025797138 
  241600    3.0413782   0.14388074    3.0335549    7.7372219  0.011759637 
  241800    3.0591605   0.14358636    2.9986587    7.7286915   0.03086725 
  242000    3.0550716   0.14961391    2.9907324    7.7206624  0.027131446 
  242200    3.0543435   0.14609758    2.9776142    7.7029363 0.0063650134 
  242400    3.0723569   0.14319353    2.9761672    7.7255919   0.01404117 
  242600    3.0879529   0.14170036    2.9546758    7.7259896   0.01862466 
  242800    3.0720708   0.14287946    3.0010081    7.7496898  0.023835597 
  243000     3.094868   0.15042312    2.9664922    7.7568961  0.034744765 
  243200    3.0545955   0.14370271    3.0322111    7.7555162  0.027512882 
  243400    3.0752533   0.14139627    2.9890256    7.7409955  0.030530668 
  243600    3.0545256   0.13681297     3.047658    7.7639685  0.027454672 
  243800    3.0165889   0.14055137    3.1026892    7.7658615  0.012656334 
  244000    3.1398626   0.15016136    2.9183314    7.7759318  0.033236506 
  244200    3.0732069   0.15949869    3.0073219     7.774326  0.011554859 
  244400    3.0405481   0.15578369    3.0489573    7.7632827  0.011953647 
  244600    3.0655762   0.14694583    3.0134152    7.7564261  0.024242684 
  244800    3.0783487   0.13999926    2.9838009    7.7390145  0.026101627 
  245000    3.0674178   0.15537809    3.0175775    7.7717818  0.032507796 
  245200    3.0802209   0.15112641    3.0227396    7.7918872  0.028581407 
  245400    3.0596605   0.14878752     3.074919    7.8109026  0.027621418 
  245600    3.0699515   0.14631208    3.0504441     7.799381  0.015342166 
  245800    3.1004182   0.14435794    2.9766713    7.7693312  0.027143239 
  246000    3.1335684    0.1372355    2.9396468    7.7748847  0.026343446 
  246200    3.0458607   0.13226753    3.0585367    7.7573109   0.01299221 
  246400    3.0555224   0.14498202    3.0170798    7.7430537  0.019707081 
  246600     3.008146   0.15285913    3.0831655    7.7459876 0.0098772204 
  246800    3.0147777   0.14903127    3.0987818    7.7677185  0.028221849 
  247000    3.0907323   0.13996219    2.9982642    7.7720069  0.033361366 
  247200    3.0270928   0.14871235    3.0747878     7.761869 -0.002180498 
  247400    3.0864652   0.13893289    3.0266253    7.7929412  0.018620592 
  247600    3.0455912   0.13529858    3.0996036    7.8010048  0.010298072 
  247800     3.092536   0.14401293    3.0236951    7.8041927  0.029976824 
  248000    3.0633716   0.15618377    3.0686432    7.8175869  0.027390781 
  248200    3.0491139   0.15532886    3.0869899    7.8137028  0.022044202 
  248400    3.0928681   0.14913709    2.9963377    7.7824573  0.033525727 
  248600    3.0518527   0.15543456    3.0543252      7.78525  0.026083505 
  248800    3.0662822   0.14934125     3.008106    7.7545709  0.033324652 
  249000    3.0473781   0.13951528     3.025956    7.7342529  0.022632201 
  249200    3.1423981   0.13906324     2.932153    7.7824565  0.024606583 
  249400    3.0531467   0.14829462    3.0628772     7.788602  0.020008787 
  249600    3.0640356   0.15104639    3.0452804    7.7900821  0.010763592 
  249800    3.0991265   0.13867032    2.9906081    7.7756438  0.011509408 
  250000    3.0605924   0.14563282    3.0371128    7.7713388  0.018146243 
  250200    3.1076829   0.14459267    2.9499718    7.7537581  0.024147061 
  250400    3.0906706    0.1443302    2.9982955    7.7763136  0.010417835 
  250600    3.0838126   0.15264997    2.9811078    7.7571639   0.01830779 
  250800    3.0824069   0.15568117    2.9838722    7.7608519  0.024851629 
  251000    3.0567522    0.1437358     3.013661    7.7402326  0.011691774 
  251200     3.068618   0.14708188    2.9987271    7.7464345  0.018318677 
  251400    3.0368129   0.15662615    3.0303525    7.7399203  0.039083989 
  251600    3.0335221   0.14673724    3.0575041    7.7522493  0.036658314 
  251800    3.0660578   0.14937526    3.0118041    7.7579665  0.033566942 
  252000    3.0551435   0.14098701    3.0370987    7.7585096  0.015696533 
  252200    3.0976773    0.1301821    3.0116595    7.7860342 -0.001841397 
  252400    3.1053694   0.15230606    2.9438353    7.7518665  0.030534357 
  252600    3.0146246   0.16475605    3.0593967    7.7438287 0.0069131033 
  252800    3.1175208   0.14576393    2.9069754    7.7266825  0.044823168 
  253000    3.0298318   0.14537773    3.0717022    7.7595553 0.0029385909 
  253200    3.0921103   0.14789304     3.002343    7.7860824  0.036494171 
  253400    3.1054113   0.13632791    3.0035411     7.795657  0.020028107 
  253600    3.0596781   0.13533744    3.0713885    7.7939484  0.016101994 
  253800    3.0478504   0.13662293    3.0791939    7.7853066  0.012753921 
  254000    3.0847163   0.13829543    3.0369874    7.8000437  0.024286838 
  254200    3.0627811   0.14727928    3.0645597    7.8037135  0.035054055 
  254400    3.0444154   0.15312515    3.0793582    7.7968231  0.038291927 
  254600    3.0758005   0.14229812      3.04914     7.802832  0.028101336 
  254800    3.0535777   0.13507292    3.0721983    7.7853476   0.02138814 
  255000     3.050536   0.14116812    3.0839651    7.7986493  0.018967016 
  255200    3.1049311   0.15081908    3.0000632    7.8059502  0.026966632 
  255400    3.0875647   0.14006425    3.0296301    7.7987256  0.018933764 
  255600    3.1176664   0.13365134    2.9889911    7.7968038  0.010798338 
  255800    3.1359227   0.15266737    2.9516116    7.8058111  0.022450434 
  256000    3.0403028   0.14770752    3.0823563    7.7882379  0.010639891 
  256200    3.0775731   0.14908805    3.0049869    7.7681264  0.035788915 
  256400    3.0699114   0.13825253    3.0147086    7.7555258  0.027276105 
  256600    3.1323401   0.13662847    2.9223416    7.7551311  0.030755858 
  256800    3.0661838   0.14853019    3.0052054    7.7507117  0.020412212 
  257000     3.052359   0.14273591     3.024607    7.7435921  0.024510376 
  257200    3.0643317   0.15180163     3.010587     7.756588 0.0084522212 
  257400    3.0791053   0.14080278    3.0101075    7.7672589  0.018570798 
  257600    3.1084443   0.14487979    2.9749217    7.7801366  0.039326013 
  257800    3.0662957   0.14311036    3.0681023    7.8083566  0.012601803 
  258000    3.0971946   0.13576135    3.0615113    7.8407416  0.027749838 
  258200    3.0942641   0.13254877    3.0607855    7.8324097  0.028555322 
  258400    3.0338746   0.14354331     3.143517    7.8355967 0.0039407747 
  258600    3.1391169   0.15301802    2.9780793    7.8374182  0.033479201 
  258800    3.1133762     0.143874    3.0216542    7.8332575  0.030877203 
  259000    3.0732428   0.14388952    3.0873027    7.8387514  0.017330142 
  259200    3.1210166   0.14411881    3.0165049    7.8398078  0.030159308 
  259400     3.085464   0.15734733    3.0372551    7.8204844  0.012717175 
  259600    3.0940881   0.15549629    3.0545907    7.8488986  0.019021689 
  259800     3.060068   0.15150766    3.0913292    7.8306438  0.013960877 
  260000     3.047384   0.15738797    3.0805276     7.806706  0.014893063 
  260200    3.0309073   0.16101416    3.1114468    7.8165488 0.0072395998 
  260400    3.0917055    0.1592998    2.9947993    7.7893386  0.028063961 
  260600    3.0767317   0.14292917    3.0287107    7.7844298  0.024589744 
  260800    3.0934025   0.13758569     2.995903    7.7712724  0.023679355 
  261000    3.0971764   0.14453976    2.9757879    7.7637694  0.016757143 
  261200     3.112055   0.13879549    2.9555212    7.7600652  0.022530877 
  261400    3.0993538   0.14057406    2.9861932    7.7734735  0.020738686 
  261600    3.0442542    0.1506243    3.0442642    7.7589865   0.03730026 
  261800    3.0364695   0.15609958    3.0626156    7.7711421  0.041020591 
  262000    3.0517665   0.15549895    3.0459128    7.7767726  0.020512818 
  262200    3.0636331   0.13656283    3.0329222    7.7626369  0.013362362 
  262400    3.0849619   0.14041965    2.9721853    7.7377341  0.036225944 
  262600    3.0465273   0.14753439    3.0071945    7.7222349 0.0073704218 
  262800    3.0625728   0.14329787    2.9909846    7.7258448  0.016344371 
  263000     3.067005   0.14281105    2.9759084    7.7169268  0.026193153 
  263200    2.9672518   0.14110648    3.1077044    7.6974632   0.00411444 
  263400    3.0357508   0.14684941    2.9881786    7.6863775  0.023743744 
  263600    3.0692079   0.14606605    2.9144258    7.6620017  0.032948358 
  263800    2.9925888   0.13737374    3.0230839    7.6470964  0.021570065 
  264000     3.095619   0.14631794    2.8880598    7.6754846  0.040815918 
  264200    2.9762981   0.15479037      3.08325    7.7002553  0.012386779 
  264400    3.0788476    0.1543658    2.9399279     7.710256  0.044000588 
  264600    3.0304377   0.14108097    3.0225352    7.7069998  0.030495997 
  264800    3.0226246   0.14139808    3.0517105    7.7247785  0.029993472 
  265000    3.0739403   0.14756577     2.978708    7.7348788  0.034991722 
  265200    3.0752856   0.15498145    2.9565061    7.7221095  0.039020728 
  265400    3.0949672   0.14980175    2.9288488    7.7187801  0.018617215 
  265600    3.1424249   0.14295338    2.8826648    7.7368987  0.030505339 
  265800    3.0989698   0.13869818    2.9404549    7.7252836  0.019443287 
  266000    3.1026505   0.15015239    2.9192748     7.721076  0.040738132 
  266200    3.0498671   0.16037409    2.9791014    7.7119888   0.01978519 
  266400    3.0751072   0.14208854    2.9499983    7.7024413  0.024519932 
  266600     3.032149   0.13833936    3.0036037    7.6878924  0.015274597 
  266800    2.9927869   0.13696728    3.0763248    7.7002278  0.020051975 
  267000     3.066581   0.13711137    2.9688954    7.7035783  0.022965329 
  267200    2.9947233   0.15039241    3.0848243    7.7250556  0.029925933 
  267400    3.0362372   0.16002699    3.0167104     7.728816    0.0275687 
  267600    2.9928385   0.15020681    3.0792298    7.7164498  0.036041016 
  267800    3.0082496   0.15002469    3.0565841     7.716727   0.03416298 
  268000    3.0513485   0.14617953    2.9878325    7.7087463  0.033201412 
  268200    2.9818694   0.14943467    3.0989401    7.7189426  0.020111776 
  268400     3.073313   0.13895111    2.9481443    7.6947599  0.029101873 
  268600    2.9726537   0.13873799     3.097037     7.692526 0.00057783848 
  268800    3.0241082   0.14401512    2.9963923    7.6743016   0.02954059 
  269000    3.0047698   0.14593254    3.0250402    7.6758739  0.010848283 
  269200     3.135861   0.14030986    2.8474729    7.6892224  0.031405298 
  269400    3.0359489   0.13928912    3.0152344    7.7061699  0.021843473 
  269600    3.1152677   0.13736131    2.9051596     7.713086  0.030733454 
  269800    3.0728532     0.142769    2.9656893    7.7154334  0.017303811 
  270000    3.0872393   0.13470357    2.9456941    7.7089411  0.034758582 
  270200    3.0568913   0.14172005     2.980879    7.7056433  0.026850273 
  270400    3.0415996   0.14627422    3.0043168    7.7107091  0.023285959 
  270600    3.0309452   0.14516775    3.0140368    7.7033492  0.019927335 
  270800    3.0546873   0.15224887    2.9673828    7.6993716  0.031460684 
  271000    3.0449838   0.13246007    3.0025351    7.7001871  0.020343952 
  271200    2.9887757   0.14513122     3.066236    7.6922892 0.0089080567 
  271400    3.0094344   0.15321576    3.0055786    7.6706888  0.014854453 
  271600    3.0424844   0.14298341    2.9800337    7.6844619  0.030267762 
  271800    2.9792058    0.1385222    3.1074682    7.7125647 0.0047732131 
  272000    3.0911287   0.13750989    2.9311473     7.703032  0.029257903 
  272200    3.0394835   0.14191671      3.01238    7.7112423  0.015530791 
  272400    2.9832605   0.14601012    3.0801422    7.6988056  0.019947228 
  272600    3.0432123   0.15098821    2.9842817    7.6978059   0.01711951 
  272800    3.0698151   0.14687536    2.9629971    7.7122927  0.028011173 
  273000    2.9975924   0.14637658    3.0796036    7.7201206  0.018861995 
  273200     3.051272   0.14022118       3.0304    7.7452408  0.032332745 
  273400     3.046231   0.14519303    3.0668328    7.7790876   0.00829025 
  273600    3.1315696   0.13966854    2.9640981    7.7987724  0.032470213 
  273800    3.0388982   0.15435858    3.0649268    7.7753535  0.025794238 
  274000    3.0555501   0.14682114    3.0345817    7.7624364  0.037335572 
  274200    3.0392591   0.14516521    3.0630651    7.7648395  0.027058714 
  274400    3.0814799   0.13235312    3.0235684    7.7758303  0.022182151 
  274600    3.0225489   0.13267336    3.1165064    7.7807362  0.011527181 
  274800    3.1052789   0.15684556    2.9832345    7.7956695  0.027342206 
  275000     3.091434   0.14946388     3.023991    7.8082873  0.018965205 
  275200    3.1321262   0.14088506    2.9542366    7.7909618  0.033962371 
  275400    3.1008904   0.13255186    3.0025174    7.7840792  0.039457157 
  275600    3.0476652   0.14865746    3.0407157    7.7585852  0.028276959 
  275800    3.0509156   0.16264499    3.0046127    7.7413429  0.021601253 
  276000    3.0904014   0.14195771    2.9691466    7.7443886  0.019912221 
  276200     3.078331   0.13138613    2.9887667    7.7353405   0.01535754 
  276400    3.0508596   0.13662296    3.0256188    7.7362431   0.01224519 
  276600    3.0133558   0.14778083    3.0624334    7.7279878  0.017868178 
  276800    3.0568805   0.14808154    2.9671058    7.6982155  0.023172732 
  277000     3.025516    0.1533575     2.998958    7.6883204  0.027162666 
  277200    3.0213342    0.1479094    3.0013627    7.6790073  0.034418925 
  277400    3.0124924   0.14820931    3.0041273    7.6688158  0.028455695 
  277600    3.0476958   0.16040102    2.9435179    7.6731769  0.025683819 
  277800    3.0297936   0.14450135    2.9838931    7.6708125  0.026516201 
  278000    3.0800894   0.13193769    2.8914401    7.6412018   0.02312088 
  278200    3.0349817   0.14518345    2.9343399    7.6297197  0.033459759 
  278400    2.9945644   0.15516001    2.9811839    7.6259446  0.019384851 
  278600    3.0216672   0.16760841    2.9326654    7.6305083  0.030816915 
  278800    3.0463727   0.15819986    2.9228161    7.6482902  0.034652904 
  279000    3.0036664   0.15710777    2.9815797    7.6419343  0.038132072 
  279200     2.956339   0.13690503    3.0616501    7.6308464  0.011803177 
  279400    3.0031143   0.14010686    3.0045931     7.647119  0.013441082 
  279600    3.0221576   0.15872723    2.9503235    7.6400206  0.029587742 
  279800    2.9774562    0.1653369    3.0038974    7.6331854  0.020679238 
  280000    2.9784788   0.16692995    2.9738301    7.6062443  0.019876429 
  280200    2.9848244   0.16869196    2.9592717    7.6029617  0.034571067 
  280400    3.0070428   0.15423328    2.9479362    7.6104785  0.017166469 
  280600    3.0334671   0.13910994    2.9437619    7.6307973  0.031928617 
  280800    3.0076904   0.14077772    2.9475918    7.5976494   0.02314872 
  281000    3.0126167   0.14294605    2.9491622    7.6087738  0.024994777 
  281200    2.9837723   0.16149864    2.9458334    7.5807527  0.022016734 
  281400    3.0058866    0.1474439     2.954056    7.6080753  0.015268057 
  281600    2.9896211   0.15274526    2.9967276    7.6316623  0.027417748 
  281800    2.9532253   0.14489269    3.0593443      7.63186  0.026614053 
  282000    3.0571767   0.14670131    2.9128464    7.6430199  0.039098888 
  282200    3.0320421   0.14760718    2.9316519    7.6250482  0.013663642 
  282400    3.0930319   0.14570484    2.8401079    7.6230408  0.027673521 
  282600    3.0415875   0.15469584    2.9097844    7.6245802  0.015873148 
  282800    3.0516594   0.15248031    2.9070565    7.6347371   0.03351386 
  283000    3.0135083   0.14176025    2.9592372    7.6189998  0.028701037 
  283200    3.0046908   0.14200611     2.965553    7.6123418  0.019617732 
  283400    3.0139406    0.1361292      2.95811    7.6128897  0.037524703 
  283600     2.970468    0.1481694     3.024355    7.6259984  0.024664929 
  283800    3.0357446   0.14488934    2.9548667    7.6510961  0.028429152 
  284000    3.0464503   0.14434452    2.9584039    7.6701391  0.025611335 
  284200    3.0428348   0.15290311    2.9245945    7.6394677  0.016394593 
  284400    3.0669395   0.13989887    2.9205188    7.6585267  0.031140541 
  284600    3.0498744   0.13794528    2.9353664    7.6458359 0.0078491627 
  284800    3.0630342   0.14585559    2.9313146    7.6694243  0.022029893 
  285000    3.0594469   0.15681169    2.9326383    7.6763258  0.020246071 
  285200    3.0341036   0.14597247    2.9734981    7.6683504    0.0144369 
  285400    3.0734187   0.15598847    2.8923895     7.656201  0.031822871 
  285600    3.0068833   0.16475252     2.979071    7.6518932  0.014750427 
  285800     3.088164   0.15139332    2.8668698    7.6481931  0.038330097 
  286000    2.9814613   0.14958711    2.9939143    7.6134573  0.013729142 
  286200    3.0062836   0.14705935     2.953451     7.607681  0.029144184 
  286400     2.950233   0.16013431    3.0356179     7.618889  0.021481904 
  286600    3.0092565   0.15355994    2.9599616    7.6251493   0.02630399 
  286800    2.9629856   0.15313564    3.0297489    7.6251407  0.015946433 
  287000    2.9860934   0.15465325    2.9798809    7.6114347  0.028450371 
  287200    2.9603102   0.14184569    3.0234764    7.6035672  0.017682068 
  287400    3.0638383   0.13238807    2.8694208    7.5952685  0.029632212 
  287600    2.9814761   0.13522955    2.9989859    7.6041935  0.027819558 
  287800      2.99657   0.14309732    2.9441599    7.5798648  0.023252155 
  288000    3.0049154   0.15722576    2.9275958     7.589941  0.014934772 
  288200     2.998985   0.14168547    2.9577943     7.595708  0.027843089 
  288400    3.0239991    0.1392442    2.9076891     7.580664  0.020549093 
  288600     2.985135   0.14478149    2.9721744    7.5924196  0.025007367 
  288800    2.9765742   0.15852982    2.9978451    7.6190039  0.022420738 
  289000    3.0293883   0.15859476    2.9162162    7.6166214  0.024448981 
  289200    3.0065129   0.15090707    2.9616592    7.6200807  0.022348285 
  289400    3.0523148    0.1448622    2.9186702    7.6397153  0.024411411 
  289600    3.0510584   0.13849519    2.9206005    7.6333951  0.016183857 
  289800    3.0226056   0.14236169    2.9536491    7.6276522  0.030313403 
  290000    3.0082801    0.1419313    2.9830663    7.6351615  0.014404656 
  290200    2.9983376    0.1451069    3.0023662    7.6427307  0.027883233 
  290400     2.999772   0.14536115    2.9926671    7.6354365  0.014829918 
  290600    2.9917239   0.14629794    3.0244317    7.6560716   0.01525196 
  290800    3.0152481   0.15168263    2.9733581    7.6456513  0.016636171 
  291000    3.0319753   0.13694706    2.9448897    7.6275257  0.023779018 
  291200    3.0420822   0.14416397    2.9078773     7.612883  0.029234637 
  291400    3.0402394   0.15826773    2.8822058    7.5985524  0.022929625 
  291600    2.9770069   0.14432931    2.9783928    7.5859997   0.01495843 
  291800     2.965276   0.12908013    3.0120534    7.5868236  0.014841252 
  292000    3.0275025    0.1336011    2.9151678     7.587752  0.019853647 
  292200    3.0036581   0.14341281    2.9055393    7.5521865  0.015168632 
  292400     3.032026   0.14232996    2.8762508    7.5643457  0.023463066 
  292600     2.996335   0.15219889    2.9388058      7.58326  0.031811398 
  292800    3.0145311   0.14086336     2.896707    7.5571062  0.021014641 
  293000    3.0231691   0.13857471    2.8903928    7.5614538  0.026642232 
  293200    3.0179935   0.14261394    2.8874744    7.5548152  0.024119118 
  293400    2.9442124   0.15495744    2.9877537    7.5568216  0.015733124 
  293600     3.029609    0.1526029    2.8431011    7.5378453  0.029999796 
  293800    3.0105846   0.16186551    2.8817081    7.5571925   0.01402096 
  294000    2.9812794   0.15365132    2.9228381    7.5461726  0.015178881 
  294200    3.0035741   0.15029591    2.8961085    7.5495128  0.017976838 
  294400    3.0221177   0.14000758    2.8833467    7.5542643  0.013981851 
  294600    2.9868512     0.144537    2.9515296    7.5741033  0.018201678 
  294800    2.9856064   0.14085632    2.9515834    7.5686102 -0.00051981416 
  295000     3.080771   0.13854039    2.8148592    7.5722454   0.02933854 
  295200    3.0169603   0.14367073    2.9050262    7.5718747  0.018989304 
  295400    2.9829491   0.16264726    2.9534969    7.5883306  0.019957967 
  295600     2.989792   0.15722942    2.9471036    7.5867787  0.026775824 
  295800    3.0151817   0.14808669    2.9207679    7.5893658  0.014197341 
  296000    3.0272692   0.13487994    2.9178619    7.5913753  0.020657986 
  296200    2.9865399   0.14497234    2.9634676    7.5860099  0.029590671 
  296400    2.9364163   0.15200656    3.0237866    7.5782152  0.018378067 
  296600    2.9627617   0.14645877    3.0069198     7.595299  0.023728842 
  296800    2.9586022   0.13889904    3.0192929    7.5938764  0.023768053 
  297000    2.9552468   0.13509124    3.0069446    7.5726897  0.029895571 
  297200    2.9833736    0.1305174    2.9691106    7.5724508  0.011561978 
  297400    2.9359321   0.13394431    3.0350172    7.5706577  0.015596886 
  297600    3.0226547   0.14296052    2.8946653    7.5693409  0.037177857 
  297800    3.0268225   0.15397104    2.8856382    7.5775729  0.020586186 
  298000    2.9670124   0.15623284    2.9423523    7.5468785  0.018808748 
  298200     3.008897   0.14247479     2.903573    7.5571367  0.019884274 
  298400    3.0155984   0.15258527    2.8744035    7.5481246  0.019457626 
  298600    3.0251101   0.14581966    2.8725196    7.5537355 0.0063280718 
  298800    2.9881496   0.15253605    2.8870422    7.5195615 -0.0024948393 
  299000    3.0326821   0.15038364    2.8259585    7.5230908   0.02643874 
  299200    2.9915883   0.15673216    2.8562456    7.4981164  0.022239982 
  299400    3.0319296   0.14205682    2.8143432    7.5020205  0.025152155 
  299600    3.0363246   0.14855771    2.8075128    7.5082801   0.02761095 
  299800    2.9873361   0.14096408    2.8891158    7.5088435  0.015717624 
  300000    2.9680531   0.13879179     2.905123    7.4937685  0.027083883 
  300200    2.9871384   0.13975079    2.8971542    7.5153722  0.023057066 
  300400    2.9795655   0.14252787    2.9101469    7.5197883  0.017801308 
  300600    3.0260547   0.14673568    2.8672894    7.5508376  0.031893548 
  300800     2.982837    0.1482268    2.9508107    7.5710559 0.0079152537 
  301000    2.9773968   0.15781195    2.9534092    7.5750833  0.024839027 
  301200    2.9896777   0.15287663    2.9427154    7.5778662  0.030480182 
  301400    3.0013176   0.15117064    2.9222297    7.5731257  0.037611929 
  301600    3.0300805   0.13675996    2.9217825    7.6013907  0.022650417 
  301800    3.0353493   0.15901157    2.9091381    7.6188971  0.030460644 
  302000    3.0051909   0.15069882    2.9878686    7.6440999  0.035782112 
  302200    2.9488278   0.14294889    3.0444692    7.6084481  0.016261572 
  302400    3.0400953   0.15875104    2.9026935    7.6193074  0.032142523 
  302600    3.0334005   0.15678791    2.9053091    7.6099227   0.02194888 
  302800    3.0053649   0.14342354    2.9608599    7.6100767 0.0099271951 
  303000    3.0119843   0.13952075    2.9560554    7.6112936 0.0099417887 
  303200    2.9671305   0.14766226    3.0109593     7.607092 -0.0083216935 
  303400    2.9945271   0.15012517     2.957188    7.5968579  0.031886445 
  303600    3.0050466    0.1562091     2.972026    7.6335512  0.020869942 
  303800    2.9791931   0.15239718    3.0067515    7.6257039  0.042356069 
  304000    2.9571708   0.15557198    3.0447836    7.6338939  0.026797022 
  304200    2.9899862   0.15758669    2.9873077    7.6276312  0.029114521 
  304400    2.9666236   0.15718337    3.0148274    7.6197212  0.023962366 
  304600    2.9612029   0.14774458     3.033116     7.620444  0.023281413 
  304800    3.0352231   0.14355532    2.9170012    7.6111147   0.04285252 
  305000    3.0209047   0.15312586    2.9110291    7.5932464  0.017675784 
  305200    2.9658906   0.14984135    3.0149346    7.6113874  0.011315533 
  305400    2.9867307    0.1492661       3.0114    7.6385222  0.010508679 
  305600    3.0371705   0.14599917    2.9414164    7.6408935  0.042913511 
  305800    2.9919734   0.15378781    3.0171862      7.65669  0.013335435 
  306000    3.0564612   0.15013983    2.9451732    7.6777124  0.034139244 
  306200    3.0198304   0.13767241    3.0085099    7.6736631  0.023624263 
  306400    2.9933137   0.14249825    3.0631309    7.6933548  0.019071781 
  306600     3.028508   0.14805948    2.9826556    7.6712057  0.033806067 
  306800    2.9742171   0.15800301    3.0406983    7.6577963   0.01968368 
  307000    3.0550975   0.14726422    2.9471256    7.6747448  0.025073683 
  307200    3.0331662   0.14742254    2.9716548    7.6665518  0.017207699 
  307400    3.0272811   0.14475156    3.0017039    7.6851066   0.01571182 
  307600    3.0508648   0.14665865    2.9688338    7.6895015  0.015282254 
  307800    3.0161476   0.14719658     3.015302    7.6844578  0.020939771 
  308000    3.0222717    0.1498605    3.0240186    7.7050199  0.039503979 
  308200    2.9974124   0.15953842    3.0723832    7.7257921  0.025869481 
  308400    3.0094442   0.15621396    3.0514963    7.7196195  0.036179218 
  308600    3.0620061   0.13952245    3.0058354    7.7360705  0.029547227 
  308800    2.9670732   0.13760746    3.1618505    7.7478425  0.017597121 
  309000    3.0310602   0.13527004    3.0366363    7.7162234  0.033774997 
  309200    3.0147968   0.13204857    3.0855937    7.7375764  0.010232507 
  309400    3.0492045   0.13543189    3.0497469    7.7566987  0.029337049 
  309600    3.0353704   0.14608967     3.055308    7.7521766   0.02495984 
  309800    3.0327937   0.14324069    3.0655441    7.7557007 0.0048917511 
  310000    3.0901733   0.13616157    2.9620141    7.7311181  0.015286258 
  310200    3.1095554   0.13759617    2.9367823    7.7363795  0.014425241 
  310400    3.1306798    0.1481347    2.8990987    7.7409051  0.032586845 
  310600    3.0363465   0.14162639    3.0521888    7.7460577  0.013470592 
  310800     3.069905   0.14529012    2.9765918     7.724437  0.044259208 
  311000     3.038099   0.13532611    2.9901848    7.6803809  0.029788263 
  311200    3.0295116   0.13537583    3.0092603    7.6866315  0.027724144 
  311400    3.0396737   0.14444444    2.9819511    7.6836263   0.02053654 
  311600    2.9712221   0.15191295    3.0875945    7.6941123  0.013859386 
  311800    3.0536905   0.15823535    2.9805487    7.7170295  0.013475955 
  312000    3.0665249    0.1626039    2.9684535    7.7285448  0.019212426 
  312200    3.0466078   0.15063039     2.996692    7.7149491  0.028028146 
  312400    3.0544433   0.14257712    2.9961497    7.7181009  0.030886908 
  312600    3.0532659   0.13925113    3.0016443    7.7185043  0.030812435 
  312800    2.9893199   0.13434279    3.0938247    7.7099053  0.028413629 
  313000    3.0257987   0.13874695    3.0696747    7.7448504   0.02898325 
  313200    2.9947934   0.14287706    3.0886812    7.7215022 0.0082724413 
  313400    3.0276192   0.14615969    3.0226255    7.7079433  0.022049369 
  313600    3.0261048   0.15507282    3.0260852    7.7180456  0.018288227 
  313800    3.0487798   0.15896257    2.9877654    7.7176111  0.029429513 
  314000     3.057764   0.15110531    2.9694404    7.7048985  0.021269408 
  314200    3.0164971   0.15238332    3.0339037    7.7087703 0.00046934347 
  314400    3.0949027   0.13902861    2.9366205    7.7156819  0.029687516 
  314600    2.9921063    0.1402974    3.0886162    7.7148289 0.00079198121 
  314800      3.03622   0.15216222     3.029713     7.733928  0.018308474 
  315000    3.0607328   0.14069743    2.9861785    7.7156796   0.01396935 
  315200    3.0821915   0.14180204    2.9309242    7.6937019   0.02886841 
  315400    3.0291944   0.13887041    3.0224744    7.7028646  0.036275023 
  315600    3.0100322   0.14621228    3.0308709     7.689874  0.030487989 
  315800    3.0078452   0.14031381    3.0285386    7.6783643   0.03426688 
  316000    2.9966888   0.13915871    3.0554223    7.6873666  0.015630725 
  316200    3.0070929   0.14575729    3.0400393    7.6941807  0.014747638 
  316400    2.9287702   0.15680392    3.1307732    7.6785358   0.02058605 
  316600    3.0170593   0.14902939    3.0260385     7.698394  0.019245075 
  316800    2.9989303   0.14674273    3.0449176    7.6878067  0.037659919 
  317000    2.9660249   0.14467931    3.0984723    7.6899646  0.029084721 
  317200    3.0210608   0.15770336    3.0139676    7.7009963  0.017693068 
  317400     3.061676   0.15411584    2.9611326    7.7054661  0.027614305 
  317600     2.999932   0.15260366    3.0339779    7.6842296  0.013894304 
  317800    3.0549688   0.14468872     2.966273    7.6911236  0.027513374 
  318000    3.0009187   0.14708015    3.0254525      7.67166  0.026006916 
  318200    3.0220648   0.13603941    2.9920874    7.6589574  0.022672452 
  318400    3.0376486   0.12959664     2.954476    7.6382674  0.012746951 
  318600    3.0882076   0.13295416    2.9274248    7.6903742  0.025716848 
  318800    3.0652322     0.137721    2.9602668    7.6935372 0.0037359854 
  319000    3.0355412   0.13564358     2.997038    7.6837168  0.019007569 
  319200    2.9644517   0.13669727    3.0783021    7.6594536    0.0180343 
  319400    3.0191227    0.1500636    2.9587953    7.6352786  0.031155867 
  319600    3.0536042   0.14563762    2.9250303     7.648784  0.034633207 
  319800    2.9754668   0.14471839    3.0163326    7.6220196  0.022282206 
  320000    3.0442299   0.14698212    2.8830132     7.594057  0.037403539 
  320200    2.9799555   0.14571656    2.9671499    7.5805647  0.024670034 
  320400    2.9848274    0.1491085    2.9552978    7.5794089   0.01920802 
  320600    3.0522634   0.14223038    2.8919718     7.610308  0.015322877 
  320800     3.002437   0.14582918    2.9578594    7.6050923  0.021742369 
  321000    3.0020036   0.13750572    2.9431444     7.581404  0.017238582 
  321200    3.0195241   0.13604265    2.9145974    7.5776616  0.024660941 
  321400    2.9643439   0.12995919    2.9939328    7.5681847  0.016255715 
  321600    2.9813937   0.13920538    2.9544785    7.5635384  0.015134128 
  321800    2.9603511   0.14069751    2.9932622    7.5722661  0.017915308 
  322000    2.9944825   0.15024692    2.9136408    7.5533655  0.019949855 
  322200    2.9545397   0.15704457    2.9800574    7.5666956 0.0095755313 
  322400    2.9277795   0.15885193    2.9889123    7.5372376  0.016497381 
  322600    2.9708332   0.13972683    2.9382087    7.5319572  0.012087183 
  322800    2.9573872    0.1413278    2.9740604    7.5492509  0.032700643 
  323000    2.9519464   0.14950855     2.987112    7.5623262  0.025854457 
  323200    2.9944282   0.15467075    2.9474316    7.5914988  0.033055178 
  323400    3.0156071   0.14944426    2.9126437    7.5832369  0.027625382 
  323600    3.0016728   0.13940465    2.9521637    7.5918264   0.02210429 
  323800    2.9964936   0.13929864    2.9379124    7.5697041   0.01192402 
  324000    2.9725759   0.14790936     2.972253    7.5767968 0.0058249592 
  324200    2.9677003   0.14293132    3.0001838    7.5924398  0.016279872 
  324400    3.0105205   0.14381608    2.9439234    7.6012624  0.027706376 
  324600    3.0200408   0.14564358    2.9188393     7.592279  0.028888006 
  324800    3.0215291   0.14818029    2.9094879    7.5876957  0.031180531 
  325000    2.9990857   0.13897308    2.9317775    7.5671298  0.016714112 
  325200     3.058792     0.130815    2.8910193    7.6077283   0.02772812 
  325400    2.9734312   0.13285784    3.0191887    7.6099633 0.0090101761 
  325600    3.0012843   0.13394391    2.9903759    7.6239952 0.0021757285 
  325800    3.0397611   0.13649256    2.9382571    7.6321115  0.035398176 
  326000    2.9984531   0.15531703    3.0000673    7.6508151  0.024399555 
  326200    3.0388846   0.14784576    2.9410744     7.644968  0.030143108 
  326400    3.0022653   0.16424494    2.9879945    7.6533856  0.037660632 
  326600    3.0049517   0.14875059    3.0062869    7.6602114  0.013691562 
  326800    3.0761771   0.13585505    2.8847912    7.6326047  0.033697686 
  327000    3.0185646   0.13334002     2.988254     7.647177   0.01363622 
  327200    3.0697956   0.16046834    2.8703519    7.6332112  0.031166302 
  327400    3.0406479   0.16639455    2.8734772    7.5985632  0.017503915 
  327600    3.0064103   0.15910776    2.9142214    7.5806898  0.015401961 
  327800    3.0381683   0.14475783    2.8707586    7.5704904  0.014320443 
  328000    3.0211651   0.13387952    2.9182756    7.5816369  0.015090819 
  328200    2.9826601   0.13816115    2.9734227     7.583337  0.025513246 
  328400    2.9711486   0.15663569    2.9849136    7.5960439  0.032875903 
  328600    3.0197787   0.14106777    2.9332928    7.6017638   0.04510384 
  328800    2.9455048   0.13250136    3.0542935    7.6028429  0.025339271 
  329000    3.0271575   0.13632988    2.9082883     7.583084  0.023896798 
  329200    3.0453944    0.1465177    2.8829766    7.5953018  0.031557545 
  329400    3.0131231   0.13243042     2.923887    7.5737423  0.018666017 
  329600    2.9902947   0.14610735    2.9186569    7.5479636  0.027984256 
  329800    2.9344553   0.14805857    3.0113466    7.5588872  0.013656522 
  330000    2.9845353   0.15128299     2.941436    7.5672836  0.026148872 
  330200    3.0159502    0.1505806    2.8958017    7.5680457   0.01362613 
  330400    2.9983357   0.13912783    2.9283916    7.5627742  0.018626141 
  330600    2.9592253   0.13939584    2.9890489    7.5650633  0.021698033 
  330800    2.9656972   0.13982981    2.9844535    7.5706049  0.020585302 
  331000    3.0225883   0.14779494    2.8584733    7.5378838  0.033251112 
  331200    2.9420221    0.1405743    3.0023872    7.5537882 0.0094385408 
  331400    3.0182708   0.13286979    2.9039132    7.5619255  0.035465702 
  331600    2.9441802   0.14132402    3.0082586    7.5636448 0.0028929027 
  331800    3.0375375   0.14252861    2.8469193     7.543476  0.038908146 
  332000    2.9750816   0.15041675    2.9398438    7.5506515  0.034476862 
  332200    3.0199454   0.14860126    2.8822948    7.5585493  0.028943553 
  332400    2.9873599   0.14686723    2.9236549    7.5493215  0.037449106 
  332600    3.0116966   0.14238378    2.9094348    7.5671046  0.020795484 
  332800    3.0209616   0.15054481    2.9062705     7.585992   0.01053319 
  333000    2.9883668   0.15757469    2.9577622    7.5956458  0.016430696 
  333200    3.0170739   0.13993216    2.9046833    7.5679635  0.021283594 
  333400    3.0438593   0.14253217    2.8659652    7.5720034  0.016519128 
  333600    2.9950589   0.15268572    2.9347096    7.5777374  0.025499959 
  333800    3.0152707   0.14222311    2.8826482    7.5455159  0.024101524 
  334000    3.0088707   0.13797835     2.897264    7.5462918  0.022374432 
  334200    2.9793258    0.1338269    2.9343028    7.5348839  0.014178744 
  334400     2.979871   0.14244448    2.9275024    7.5375185   0.01696919 
  334600    2.9786193     0.148984    2.8924661    7.5071451 0.0096651699 
  334800    2.9783589   0.14070848    2.8837043    7.4897173  0.015950348 
  335000    2.9673519   0.14012376    2.9273876    7.5163137  0.013952347 
  335200    2.9643636   0.14557533    2.9409323    7.5308297  0.023380865 
  335400    2.9654363   0.15298422    2.9472663    7.5461808  0.013620635 
  335600    3.0595384   0.14702124    2.8393835    7.5734176  0.027586535 
  335800    2.9694053    0.1493283    2.9645937    7.5658028  0.023935112 
  336000    3.0020813   0.15116673    2.9259803    7.5780175  0.036516043 
  336200    3.0081083   0.15547949     2.960608    7.6259939  0.016478045 
  336400    3.0007622   0.14062534    2.9845704    7.6240885  0.031147264 
  336600    3.0333687   0.13487891    2.9419315    7.6245885  0.028583885 
  336800    3.0129503   0.13786207     2.954138    7.6091657  0.021723425 
  337000    2.9564729   0.14073555    3.0384821    7.6117097  0.023618468 
  337200    3.0462834   0.14744466    2.8774246    7.5920096  0.028174573 
  337400    3.0420226   0.13839689    2.8670914    7.5662406  0.018505107 
  337600    3.0093418   0.14292361    2.9346141    7.5892935   0.02252351 
  337800    3.0645396   0.15022693     2.871929     7.616667  0.018482135 
  338000    3.0198872   0.14513159    2.9390982    7.6117956   0.02594108 
  338200    3.0305623    0.1466929    2.9125871    7.6028505  0.011985818 
  338400    2.9795115   0.15341694    3.0128714    7.6333209  0.021064363 
  338600    3.0533614   0.15195708    2.9229747    7.6526839  0.027944998 
  338800    3.0242801   0.14181923    2.9495798     7.625551    0.0175821 
  339000    3.0023765   0.14977508    2.9852417    7.6363297  0.024503871 
  339200    3.0651111   0.14607467    2.9038197    7.6452622  0.023655148 
  339400    3.0337488   0.14972621    2.9212963    7.6193703  0.028533683 
  339600    3.0738407   0.16217816    2.8862983    7.6569322  0.015538691 
  339800    3.0158984   0.14774368    2.9608907    7.6302201  0.017690413 
  340000     3.053577    0.1505617    2.9075296    7.6361666  0.034599562 
  340200    2.9747243   0.15438735     3.026341    7.6405838  0.012092698 
  340400    3.0411216   0.14794414    2.9156938    7.6230395  0.040988368 
  340600     2.987076   0.14286904      3.02241    7.6436528  0.012266956 
  340800    3.0105144   0.14940808    2.9676531    7.6305749  0.031697287 
  341000    2.9526005   0.14307793    3.0688226    7.6385868  0.013150556 
  341200    3.0136718   0.13853342    2.9819807    7.6387615   0.01628098 
  341400    3.0481016   0.14788172    2.8979504    7.6156985  0.043306614 
  341600    3.0246307   0.15359267     2.931642    7.6199122  0.023949035 
  341800    3.0424026   0.15395033    2.9097543    7.6250267  0.034225628 
  342000    3.0228602   0.13992971    2.9305904    7.6025433  0.021523539 
  342200    3.0094675   0.14277693    2.9599739    7.6146949  0.031064278 
  342400    3.0016616   0.14314298    2.9547016    7.5980857  0.010112465 
  342600    3.0466739    0.1365719    2.8990902     7.603388  0.039942237 
  342800    2.9988862   0.14675047    2.9614645    7.6042951  0.020703701 
  343000    3.0698016   0.14180216    2.8640133    7.6082155  0.034608634 
  343200     3.015223    0.1445026    2.9306076    7.5956833  0.037158349 
  343400    3.0403864   0.14206867    2.8893881    7.5897562   0.04091674 
  343600    3.0097837   0.14240038    2.9597113    7.6145299  0.024928145 
  343800    3.0339033   0.14513411    2.9300832    7.6237969  0.024873294 
  344000    3.0747604   0.13419642    2.8655273    7.6095582  0.029430606 
  344200    3.0151567   0.13650534     2.936213     7.593192  0.023868319 
  344400    3.0003884   0.14827683    2.9288198     7.575429  0.027244905 
  344600    2.9560998   0.14131162    2.9754258      7.54867  0.015321595 
  344800    2.9459741   0.14143669      2.99174    7.5499284  0.019611331 
  345000    3.0065285    0.1492346    2.9230444    7.5798168  0.016863905 
  345200     2.995568   0.14970965    2.9371263    7.5779413  0.029177972 
  345400    2.9663609    0.1297116    3.0041106    7.5811389  0.012703594 
  345600    3.0244923   0.13471154     2.911383    7.5805645  0.024701887 
  345800    2.9426542   0.14207204    2.9972179    7.5510643  0.024671441 
  346000    2.9886211   0.14761194    2.8917372    7.5200393  0.025624579 
  346200    3.0112022   0.14721591    2.8476167    7.5093775  0.019871459 
  346400    2.9514124   0.13769699     2.972969    7.5355709  0.003036546 
  346600    2.9966362    0.1403019    2.9053138    7.5383226  0.025948023 
  346800    3.0061894   0.14383148    2.8878614    7.5387224  0.033014347 
  347000    2.9679291   0.14556707    2.9559022     7.551137 0.0054604586 
  347200    2.9945102     0.138713    2.9118298    7.5400622  0.024133806 
  347400    3.0181055   0.14226704    2.8841012    7.5512628  0.032679119 
  347600    2.9835092   0.14596447    2.9521418    7.5711325  0.025361391 
  347800    3.0129312   0.13947135    2.9301305     7.586739  0.017447126 
  348000     3.031272   0.14429627    2.8912251    7.5801558  0.032788474 
  348200    2.9661518   0.14755841    2.9990919    7.5936534  0.016425921 
  348400    2.9924132   0.14321155    2.9583019    7.5878889  0.032538792 
  348600    3.0149478   0.15796602    2.9179928    7.5961194 0.0092692787 
  348800     3.041514   0.15185569    2.8704078    7.5822534  0.027783805 
  349000    3.0186857   0.14343199    2.9161612    7.5853577   0.02238743 
  349200    3.0314434   0.14295441    2.8951157    7.5829616  0.028600256 
  349400    3.0008515   0.13838465    2.9475083    7.5849195  0.022305562 
  349600    2.9730468   0.14932337     2.975341    7.5820048  0.031929468 
  349800     2.985357   0.14420953    2.9574278    7.5774338 0.0057843333 
  350000    3.0156129    0.1446709    2.9368823    7.6027109  0.026247686 
  350200    3.0303479     0.143531    2.9239088     7.610689  0.010356421 
  350400    3.0196363   0.12899638    2.9668884    7.6230745 0.0066279115 
  350600    3.0212071   0.13477659    2.9775961    7.6419175  0.017025874 
  350800    3.0212409   0.13984817    2.9812207    7.6506643 0.0097681818 
  351000    2.9588992    0.1448934    3.0689404    7.6499634  0.017112305 
  351200    3.0466141   0.13807713    2.9450566    7.6507699   0.03617439 
  351400    3.0562527   0.14099873    2.9250543    7.6481398  0.024635674 
  351600    3.0223355    0.1417265    2.9818101     7.654773  0.024580439 
  351800    3.0332684    0.1434578    2.9551158    7.6462012  0.019246007 
  352000    3.0441197    0.1485181    2.9385876    7.6510022   0.02299871 
  352200    3.0249845   0.13484281    2.9985325    7.6685834  0.026928212 
  352400    3.0416615   0.14433659    2.9787003    7.6832479  0.028166189 
  352600    3.0656914   0.14259099    2.9405486    7.6793775  0.036831432 
  352800    3.0132061   0.14285188    3.0240132    7.6844144  0.022261768 
  353000    3.0885391   0.14371821    2.9009494    7.6751598  0.025793306 
  353200    3.0269053   0.13602503     3.016514    7.6906268  0.014711978 
  353400    3.0790672    0.1403675    2.9417018    7.6983608  0.017254488 
  353600     3.072252   0.14122157    2.9509354    7.6982308  0.024216371 
  353800    3.0339638   0.14614457    3.0104153    7.7052301  0.017648882 
  354000    3.0792479   0.13155409    2.9384573    7.6865737  0.033633639 
  354200    3.0181846    0.1348684     3.013614    7.6734956  0.019587307 
  354400    3.0408836   0.14657867     2.954468    7.6600913  0.035766607 
  354600    3.0522975   0.14134101    2.9208646    7.6383626   0.02518165 
  354800    3.0155724   0.14332488     2.972594    7.6370157   0.02249281 
  355000    3.0048766   0.15548417    2.9691088    7.6296543  0.022554279 
  355200    3.0549737   0.15487272    2.8998262    7.6348683  0.010195128 
  355400    3.0779121    0.1542228     2.872256    7.6410384  0.021856659 
  355600    2.9927466   0.14724112    2.9854305     7.619547  0.026525977 
  355800    3.0352326   0.14789981      2.87148    7.5699522  0.034134244 
  356000    3.0186051   0.15232292    2.9248526    7.6028193  0.027127908 
  356200     2.996503   0.13935507    2.9972188     7.629081   0.01819847 
  356400    3.0210203   0.13623712    2.9390444    7.6045462 0.0057642843 
  356600    3.0119405   0.14051526    2.9569319     7.613099   0.02631045 
  356800    2.9786123   0.14705835    2.9858689    7.5986118  0.038228059 
  357000    2.9920979    0.1386518    2.9711611    7.5957157  0.030601637 
  357200    2.9781908   0.13215142    2.9974696    7.5946735  0.031669819 
  357400    3.0145582   0.13538448    2.9304773    7.5854381   0.03275348 
  357600    2.9641366   0.13974722    2.9892053    7.5729343  0.014004874 
  357800    2.9748826   0.13732465    2.9724077    7.5698251   0.01986856 
  358000    3.0339298   0.13416082    2.8921589    7.5749391  0.041843937 
  358200    2.9840526   0.14490447     2.966087    7.5848323  0.026339532 
  358400    2.9868789   0.15184216    2.9644604    7.5943808  0.035648143 
  358600    3.0323435   0.16585337    2.8664247     7.578519  0.025092347 
  358800    3.0336582    0.1587335    2.8507001    7.5576457   0.02740071 
  359000     3.002204   0.14140768    2.8979168    7.5403789  0.023836997 
  359200    3.0381073    0.1385995    2.8602909    7.5537728  0.029841055 
  359400    3.0300343   0.14136684    2.8603293    7.5444751  0.018959392 
  359600    3.0509493   0.14713448    2.8383531    7.5596233   0.01158057 
  359800    3.0439505   0.14165995    2.8603609    7.5656636  0.040237261 
  360000    3.0693333   0.13579668    2.8220113     7.559506  0.025806757 
  360200    2.9792489   0.14224063    2.9503704    7.5592499  0.023430706 
  360400    2.9872545   0.14476316    2.9152608    7.5386653  0.039283108 
  360600    2.9769258   0.14868332    2.9503291    7.5621684  0.033258054 
  360800    2.9850835   0.14309614    2.9407419    7.5592245  0.014882607 
  361000    3.0229933   0.14469078    2.8840675     7.560981  0.030067465 
  361200     2.974948    0.1551143    2.9606493    7.5759543  0.017345762 
  361400    2.9694937   0.14679848    3.0109612    7.6097731  0.024895892 
  361600    2.9796318   0.14717633    2.9829069    7.5972962  0.033694474 
  361800    2.9511652   0.15653975    3.0164637    7.5975379  0.031006084 
  362000    2.9467453   0.15475161    3.0170947    7.5897542  0.028697578 
  362200    3.0268277   0.14087102    2.9095924    7.5884348  0.042188873 
  362400    2.9615648   0.13644935    3.0068273    7.5834027  0.029156603 
  362600    2.9830796   0.13194633    2.9757693    7.5800977  0.025967849 
  362800    3.0036825   0.12343948     2.928076    7.5547864  0.019829069 
  363000    2.9934083   0.12466207    2.9682927    7.5808221 0.0034400065 
  363200    2.9821599   0.14619436    2.9446389    7.5618364  0.022857719 
  363400    2.9926018   0.15299582    2.9103952    7.5500493  0.022058548 
  363600    2.9497371   0.16011392    2.9820646    7.5645719  0.020023247 
  363800    2.9886716   0.14172544    2.9411843    7.5636756  0.028341103 
  364000    3.0010913   0.14327128    2.9118543    7.5545117  0.017947017 
  364200    3.0316872   0.13624615    2.8569165    7.5384196  0.024371365 
  364400    3.0176585   0.13845696    2.9047195     7.567401  0.018780699 
  364600     2.970184   0.14191121    2.9762368    7.5711963 0.0083298671 
  364800    3.0307764   0.13785335    2.8865254    7.5682703  0.020511134 
  365000    2.9950898    0.1431131    2.9335278    7.5670293  0.016296007 
  365200     2.989656   0.14095268    2.9505249    7.5737194  0.027819116 
  365400    2.9683592   0.13733513    2.9713626    7.5590102   0.02269203 
  365600    2.9555815   0.14806011    2.9887913    7.5680071  0.035121431 
  365800    2.9715675    0.1455942    2.9632936    7.5640104   0.02324575 
  366000    2.9769325   0.14191132     2.976508    7.5815854  0.024383642 
  366200    2.9841951   0.14835259    2.9317177    7.5541247  0.024850519 
  366400    3.0057179   0.14442187    2.9328793    7.5836237  0.032928711 
  366600    3.0280642   0.13894959    2.8979244    7.5766993  0.028887361 
  366800    2.9611972    0.1312819    3.0117224    7.5825793  0.012652084 
  367000     3.012612   0.13894476    2.9124934    7.5680967  0.031132473 
  367200     3.002607    0.1518022    2.9276812    7.5811419  0.026008046 
  367400    2.9422165   0.14216127    3.0250134    7.5782927  0.025124299 
  367600    2.9818352   0.12965228    2.9753791    7.5755478  0.019037238 
  367800    2.9986692   0.13916058    2.9277279    7.5626432  0.029054681 
  368000    2.9707368   0.14197595    2.9815556    7.5774087  0.012698401 
  368200    3.0262863   0.14246345     2.874864    7.5544872  0.019135933 
  368400    2.9982011   0.15404963    2.8998961    7.5489986  0.022734271 
  368600     3.038873   0.15112916    2.8643627    7.5715221  0.024597772 
  368800    2.9658908   0.14078714     2.976012    7.5634109 0.00030268527 
  369000    3.0243071   0.14285194    2.8900685    7.5671128  0.041220269 
  369200    2.9842243    0.1435586    2.9437362     7.561393  0.024300966 
  369400    2.9687578   0.13853399    2.9800577    7.5695019  0.025934683 
  369600    2.9257345   0.14379741    3.0304523    7.5606571  0.027047128 
  369800    2.9662515   0.15861137    2.9497946    7.5555585  0.034742523 
  370000    2.9931611   0.15901487    2.9305794    7.5770911  0.022300672 
  370200    2.9622754   0.13900724    2.9856236    7.5658222 0.0055375557 
  370400    2.9249936   0.14519797    3.0215351    7.5520298 0.0087072053 
  370600    2.9902783   0.14649526    2.9226432    7.5523132  0.027581078 
  370800    2.9673622   0.15255783    2.9464237    7.5477993   0.01706584 
  371000    2.9184417   0.15635451    2.9874707    7.5192988  0.026887676 
  371200    2.9837479   0.13716805    2.9289872    7.5395393  0.023132309 
  371400    2.9640074   0.15425764    2.9580434    7.5560891  0.012019509 
  371600     2.963606   0.16470809     2.948393    7.5562873  0.031333852 
  371800     2.975035   0.15119664    2.9581803    7.5696981  0.012421676 
  372000    3.0336291   0.13446441    2.8912216    7.5738544  0.019371438 
  372200    3.0029612   0.13837874     2.958496    7.5990643  0.015039828 
  372400    3.0488966   0.15080337    2.8962569    7.6181184  0.019276255 
  372600     3.027208   0.15029287    2.9365255      7.62536   0.01671349 
  372800    2.9790004   0.13845258    3.0043003    7.6090192  0.020023739 
  373000    3.0151805   0.13511048    2.9443059    7.5999258  0.021654677 
  373200     2.962442   0.13173459    2.9973025    7.5704783  0.026008944 
  373400    2.9752303   0.13214992    2.9857099    7.5784739  0.011684182 
  373600    3.0069423   0.14954028    2.9386443    7.5963428  0.028864223 
  373800    2.9153425   0.15433585    3.0432107    7.5683738  0.023961484 
  374000    2.9716395   0.14948683     2.961429    7.5661463  0.033116382 
  374200    2.9582982    0.1451555    2.9720845    7.5524685  0.017339877 
  374400    2.9616563   0.14788737    2.9779246    7.5660752  0.033970312 
  374600    2.9676538    0.1362668    2.9807691    7.5662908  0.019822431 
  374800    3.0141886   0.13860387    2.8971636    7.5547897  0.014221207 
  375000     2.995405    0.1404166    2.9332954    7.5645729 0.0083874047 
  375200    3.0167546   0.13603871    2.9138282    7.5727362  0.015060438 
  375400    2.9886846   0.14807021    2.9349018    7.5637574  0.034438122 
  375600    2.9253057   0.13817108    3.0112222    7.5351579 0.0080583819 
  375800    2.9653062   0.13444442    2.9296955    7.5098753  0.018180405 
  376000    2.9603725   0.14325392    2.9133431    7.4949355   0.02452951 
  376200    2.9701092   0.14686582    2.8975444    7.4973465  0.011707073 
  376400    3.0251716   0.14782924    2.8357043    7.5190221  0.012042177 
  376600    3.0232255   0.13770365    2.8545513    7.5248258  0.025518791 
  376800    3.0106247   0.13943587    2.8624721    7.5155871  0.024916918 
  377000      3.00524   0.14528442    2.8500518    7.5009423  0.035150464 
  377200    2.9728562   0.16159658    2.8667036    7.4853548  0.047742031 
  377400    2.9068941   0.15354108    2.9887728    7.5004749 0.0054921832 
  377600    3.0327667   0.13697273    2.8270399    7.5108881  0.028748921 
  377800    2.9624499   0.13330632     2.914893    7.4896522  0.016904903 
  378000    2.9667429   0.14680693    2.8850965    7.4797927   0.03044646 
  378200    2.9334223   0.14344473    2.9134137    7.4547919  0.011490702 
  378400    2.9564406   0.13403261    2.8776674    7.4441436  0.020108419 
  378600     2.985108   0.13986169    2.8320133    7.4472982  0.013120348 
  378800    2.8928818   0.13422036    2.9944726     7.465846  0.005792459 
  379000    2.9625703   0.14347383    2.8623368    7.4474442  0.020650811 
  379200    2.9363632   0.14832205    2.8926324     7.443297  0.016793213 
  379400    2.9028008   0.15370045    2.9213024     7.427027  0.034239636 
  379600    2.9575599   0.14440534     2.829386     7.407913  0.018337382 
  379800    2.9562616   0.13655075    2.8339478    7.4026736  0.039021003 
  380000    2.9076807   0.12824496     2.934076    7.4216613  0.020135316 
  380200    2.9623081   0.13588969    2.8551048    7.4322349  0.027966443 
  380400    2.8769472   0.13521396    2.9767566    7.4252337  0.010217796 
  380600    2.9219123   0.14441557    2.8949506    7.4200432  0.041381408 
  380800    2.9170528    0.1410346    2.8930143    7.4074402  0.012919582 
  381000    2.9011367   0.14954115    2.9218571    7.4209274  0.021400957 
  381200    2.9559611   0.14538097    2.8405863    7.4176919   0.03360391 
  381400    2.8962957   0.15389962    2.9127351     7.408906  0.013644411 
  381600    2.9215509   0.14925052    2.8832148    7.4126004  0.023326834 
  381800    2.8876421   0.15006694    2.9358757      7.41524  0.030479139 
  382000    2.8831787   0.13869696    2.9547491    7.4160517  0.023997274 
  382200    2.9114991   0.13905612    2.9283774    7.4324985  0.021375263 
  382400    2.9294803   0.13800238    2.8870093     7.417035  0.026631297 
  382600    2.8974927   0.14177375    2.9439782    7.4298178  0.012334078 
  382800    2.9479549   0.14900753    2.8790784    7.4478072  0.030179965 
  383000    2.9728723   0.15044265    2.8695024    7.4770238  0.012569845 
  383200    2.9734763   0.14733706    2.8774022    7.4827236  0.025481162 
  383400    2.9402708   0.14652373    2.9420657    7.4967905  0.017872589 
  383600    2.9267321   0.15102295    2.9622042    7.5011303  0.019717738 
  383800    2.9478709   0.14547761     2.936244    7.5013171 0.0062487608 
  384000      2.98439   0.13134337    2.8886262    7.4943163  0.017110435 
  384200    2.9121526   0.13644943    2.9753901    7.4778843 0.0098768391 
  384400    2.9974766   0.14248943    2.8568016    7.4932578  0.030252147 
  384600    2.9195593   0.13733744    2.9667102    7.4811969  0.022905539 
  384800    2.9570938   0.14413213    2.9225262    7.5000812  0.015925275 
  385000     2.992783   0.13635545    2.9116007    7.5348861  0.021065712 
  385200    2.9981051        0.129    2.9030332    7.5269423  0.025161136 
  385400      2.98374   0.14944036    2.8886234     7.511436  0.028363927 
  385600    2.9741413   0.15341175    2.9235414    7.5359346   0.03546161 
  385800    2.9721803   0.13810059    2.9700441     7.564186  0.020020227 
  386000    3.0050668   0.13519996    2.9230919    7.5636382  0.022756342 
  386200    2.9562517   0.13648489    2.9828189    7.5514642  0.020357813 
  386400    2.9557406   0.14075787    2.9805695    7.5527214  0.026691087 
  386600    2.9966489   0.14054041    2.9366548    7.5699211  0.017675453 
  386800    2.9540642   0.14194511    2.9956143    7.5664403  0.016717474 
  387000    2.9846385   0.15170209    2.9255458    7.5519672  0.018977863 
  387200    2.9419744   0.13707907    3.0107992    7.5586333 0.0098460625 
  387400    2.9644699   0.14245684    2.9762034    7.5631418  0.014453393 
  387600    2.9726533    0.1483519    2.9514069    7.5565093  0.036299355 
  387800    3.0072163   0.14040417    2.9014447    7.5504179  0.022223115 
  388000    2.9341714   0.14255551    2.9919963    7.5336082  0.016323234 
  388200    3.0057573   0.15930917    2.8608164    7.5265072  0.037104597 
  388400    2.9830333   0.14414846    2.8881209     7.504582  0.013478408 
  388600     2.999119   0.14617411    2.8661303    7.5087336  0.030172132 
  388800    2.9345682   0.13545794    2.9751684    7.5102778   0.01747626 
  389000     2.975837   0.12831396    2.9299677    7.5198053  0.019064607 
  389200    2.9308764   0.13676672    2.9885324    7.5194156  0.018623668 
  389400    2.9382432   0.14437443    2.9608303    7.5103658  0.024614086 
  389600    2.9632144   0.13818438     2.937661    7.5184445   0.01375546 
  389800    2.9268324   0.15403613    2.9790276    7.5211173  0.023350203 
  390000    2.9770816   0.13937947    2.8703548    7.4731239  0.028692506 
  390200    2.9208575   0.13559219     2.958093    7.4727809  0.018199589 
  390400    2.9644515   0.16057127    2.8647896    7.4698149  0.032797345 
  390600    2.9451455    0.1440965    2.9498174    7.5094233 -0.0015188358 
  390800    2.9924879   0.14559324    2.8912879    7.5233686  0.028255633 
  391000    2.9938642   0.15851238    2.8814266    7.5284898  0.021338711 
  391200     2.941666   0.15433667    2.9610309    7.5256603  0.022846219 
  391400    2.9746702   0.14377199    2.9437547     7.547301  0.028202848 
  391600    2.9014965   0.14628237    3.0268879    7.5232389  0.015394444 
  391800    2.9345996    0.1442421    2.9609096    7.5048501  0.027123278 
  392000    2.9273876   0.14464848    2.9756899    7.5092242  0.012558048 
  392200    2.9773325   0.14381209    2.9066959    7.5142737  0.022739583 
  392400    2.9681856   0.13856003    2.9294485    7.5180609  0.011418993 
  392600    3.0032576   0.14060186    2.8631298    7.5063657  0.027296382 
  392800    3.0048204   0.14910488     2.880361    7.5344428  0.018194285 
  393000    3.0064138   0.12787678    2.9068509    7.5420936  0.022717964 
  393200     2.996369   0.13654831    2.8868334    7.5156879  0.018044249 
  393400    2.9988202   0.13967293    2.9021397    7.5377938  0.027063592 
  393600    3.0088163   0.12958418    2.8892301     7.529782  0.023827178 
  393800    2.9999214   0.13390781    2.9221076    7.5536476  0.026785165 
  394000    3.0300635    0.1379298    2.8665731    7.5473256  0.028289424 
  394200    2.9682336   0.13278089    2.9682848    7.5511899  0.028553842 
  394400    2.9591822   0.13961735    2.9815357    7.5577069  0.022007432 
  394600    2.9753775   0.14429154    2.9390432    7.5441694 0.0073178407 
  394800    3.0153874   0.14124784    2.8928176     7.554885  0.028360225 
  395000     2.938423    0.1372616    3.0024781    7.5451703  0.020240452 
  395200    2.9817555   0.13152041    2.9317979    7.5337153  0.022870824 
  395400    2.9175799   0.14429896    3.0247402    7.5432208  0.021646633 
  395600    2.9647738   0.15069785    2.9460159    7.5416509  0.025248121 
  395800    3.0167256   0.14164151    2.9076316     7.572099  0.027385102 
  396000    2.9820341   0.13210156    2.9881532    7.5910693  0.027718093 
  396200    2.9821575   0.13184159    2.9976252    7.6004665 0.0053736973 
  396400    3.0270144   0.12190782    2.9574472    7.6176064  0.012881709 
  396600    3.0731868   0.12299842    2.8912442    7.6217179  0.020627435 
  396800    3.0338466   0.13048295    2.9382732    7.6172507   0.01843165 
  397000      3.03896   0.13400908    2.9371996    7.6273695   0.02121159 
  397200    2.9613163   0.13925103    3.0490918    7.6280963  0.027456413 
  397400    3.0038604   0.14978198    2.9634923     7.616812  0.036031931 
  397600    2.9616829   0.15074171    3.0048862    7.5959309  0.033055463 
  397800    2.9686168   0.13297185    3.0219467    7.6056173  0.018518087 
  398000    3.0305716   0.13191188    2.9477202    7.6232165  0.031275051 
  398200    2.9530611   0.14085656    3.0695938    7.6378272  0.012791427 
  398400    3.0121914   0.13641295    2.9935858    7.6460267  0.019036686 
  398600    3.0224976   0.15173842    2.9548911    7.6381091  0.021424928 
  398800    3.0006471   0.15007895    2.9960411    7.6448402  0.041435336 
  399000    3.0119312   0.14735623    2.9878963    7.6508904  0.031468566 
  399200    3.0152203    0.1398197    2.9875396    7.6479283  0.024924509 
  399400    3.0364918    0.1389816    2.9414899    7.6329318  0.017674351 
  399600    3.0033296   0.14115177    2.9810911    7.6249847  0.022468195 
  399800    3.0352496   0.14000238    2.9422244    7.6328247  0.015045219 
  400000    2.9776798   0.13359176    3.0316393    7.6295175 -0.0072828008 
  400200     2.993742   0.13559332    3.0190712    7.6430321     0.023431 
  400400     3.035841   0.13987265    2.9544418    7.6457991  0.021709811 
  400600    3.0392254    0.1484148    2.9465159    7.6514894  0.023803565 
  400800    3.0308445   0.15152448    2.9559137    7.6514317  0.023760974 
  401000    3.0458132   0.14583721    2.9120527    7.6243254  0.038396733 
  401200    3.0813907   0.13996048    2.8824514    7.6421869  0.036150489 
  401400    3.0447609   0.14686382    2.9532029    7.6649245  0.039293909 
  401600    3.0499872   0.14421851    2.9483876    7.6652993  0.027015934 
  401800    3.0535527   0.14846145    2.9289241    7.6554244  0.020030747 
  402000    3.0431583   0.13428858     2.955763    7.6525066  0.017672126 
  402200    3.0294198   0.14890351    2.9781674    7.6689286   0.01707433 
  402400    3.0188394   0.15237876    2.9831444    7.6615181  0.023447313 
  402600    2.9523655   0.16488413    3.0618284    7.6530465  0.026315452 
  402800    2.9942436   0.16991107    2.9714154    7.6304462  0.035553016 
  403000    3.0376501   0.14996065    2.9214022    7.6255598  0.018453035 
  403200    3.0002735   0.13587941     2.974604    7.6086435  0.041823872 
  403400    3.0431271   0.15124049    2.8831099    7.5967587  0.010226318 
  403600    3.0147702   0.14266084    2.9365328     7.599088  0.022139524 
  403800    2.9710692   0.15245697    2.9944942    7.6013268  0.014549928 
  404000     3.031809   0.16231202    2.8766099    7.5843616  0.023216434 
  404200    2.9201149   0.13718576    3.0343202    7.5494882  0.009865274 
  404400    2.9757147   0.13897292    2.9382301    7.5385433  0.032292572 
  404600    2.9691953    0.1454833    2.9289227    7.5259721  0.019216968 
  404800    2.9665657   0.14366046    2.9416602    7.5329443  0.019868342 
  405000     2.929887   0.14168032    2.9938913    7.5282048 0.0078517964 
  405200    2.9702814   0.15797516    2.9324061    7.5435755  0.022562176 
  405400    3.0112616   0.16197647    2.8767411    7.5533515  0.035109005 
  405600    2.9605654   0.15779042    2.9696575    7.5660756  0.017989728 
  405800    3.0026225   0.15357994     2.930718    7.5859798  0.033424564 
  406000    2.9268839   0.14606113    3.0504189    7.5846108  0.024580854 
  406200    2.9973748   0.14376296    2.9660683    7.6036454  0.023993074 
  406400    3.0464244   0.14524904    2.9068886    7.6194894  0.025921263 
  406600    3.0505447   0.15347842    2.9126862    7.6396937  0.019848606 
  406800    3.0775368    0.1396639    2.8905715    7.6442325  0.020516503 
  407000    3.0866117   0.13505523    2.8829737    7.6456315 0.0056476295 
  407200    3.0587293   0.14827842    2.9233554    7.6574337  0.023928743 
  407400    3.0259767   0.15586243    2.9438718    7.6364298  0.031059615 
  407600    3.0161974   0.15375592    2.9833387    7.6591285   0.02120687 
  407800    3.0281602   0.14960591    2.9857469     7.675322  0.021835173 
  408000    3.0347141   0.15293113    2.9823093    7.6850355  0.038061801 
  408200     3.027106   0.14900398    2.9968345    7.6842272 0.0095349311 
  408400     3.058172   0.14503459    2.9590652    7.6890641  0.040959175 
  408600      3.06257   0.14286444    2.9675971    7.7020196  0.023834414 
  408800    3.1023688   0.13934773    2.9110271    7.7016011  0.015869835 
  409000    3.0151265   0.15221418    3.0260156    7.6986583  0.011785429 
  409200    3.1152944   0.13703527    2.9039154    7.7115558  0.015757107 
  409400    3.0627688   0.14541753    2.9813443    7.7186179 0.0081464837 
  409600      3.02653   0.15066266    3.0262173    7.7144052   0.03427413 
  409800    2.9606345   0.14370131    3.1275317    7.7099644  0.026477739 
  410000    3.0306149   0.13842779    3.0234812    7.7055585  0.030684611 
  410200     3.061896   0.13565509    2.9861882    7.7123908  0.024757752 
  410400    3.0703673   0.14110794    2.9606222    7.7049783  0.028142838 
  410600    3.0382933   0.14758412    3.0013046    7.7040499 0.0013501075 
  410800    3.0621831   0.14422678     2.985881    7.7210858  0.021103841 
  411000    3.1004681   0.15890436    2.9088771    7.7161582  0.022829762 
  411200    3.0355802   0.15823622    3.0086339    7.7179637  0.027852574 
  411400    3.0200156   0.14821599    3.0469864    7.7229608  0.043317506 
  411600    3.0112748   0.14729388    3.0575246    7.7194722  0.025137334 
  411800    3.0716926   0.14575573    2.9472588    7.6982496  0.035540656 
  412000    3.0114053   0.15123522    3.0575657    7.7236503  0.020184436 
  412200    3.0928129   0.14093829    2.9632231    7.7410611  0.011646499 
  412400    3.0471587   0.14496798    3.0327401    7.7461607  0.010091626 
  412600    3.0049148   0.15101102    3.0749429    7.7310725  0.027706993 
  412800    3.0807783   0.13053637    2.9823692    7.7317625  0.023430015 
  413000     3.093678   0.12940741    2.9432988     7.710903  0.019842671 
  413200    3.0438622    0.1414753    3.0094191    7.7144047  0.027467152 
  413400    3.0735834   0.14914917     2.962087    7.7193061  0.024977767 
  413600    3.0026271   0.15936067    3.0603217     7.721371  0.027214784 
  413800    3.0518342   0.14717946     2.999248      7.72189 0.0065744059 
  414000    3.0556987   0.14534788    3.0243116    7.7509157  0.027962125 
  414200    3.0365954    0.1483396     3.028317    7.7292722  0.021419499 
  414400    3.0421044   0.14569191    3.0268135    7.7333804  0.022841531 
  414600    3.0776402   0.13608891    2.9775448    7.7277858   0.03749525 
  414800    3.0643355   0.13798564    3.0243122    7.7565029  0.017290078 
  415000    3.1021266   0.15169304    2.9643802    7.7669366  0.035265854 
  415200    3.0056009   0.15032419    3.1008078    7.7572791  0.024456251 
  415400    3.0694892   0.14034491    3.0224088    7.7646854  0.024700739 
  415600    3.0754329   0.13808508    2.9965956    7.7455234  0.014606063 
  415800    3.1222502   0.14234683    2.9378718    7.7612523  0.024476555 
  416000    3.0596153   0.15395335    3.0276539    7.7687355  0.038933036 
  416200    2.9791646   0.15048404    3.1529291    7.7699257  0.028051818 
  416400     3.065855   0.14098884    3.0274837    7.7649557  0.034616525 
  416600    3.0346317   0.14499589    3.0767077    7.7713753  0.029168778 
  416800    3.0661588   0.15283861    3.0299454    7.7797226  0.039116277 
  417000    3.0713486   0.16135899     3.018994    7.7850724  0.035217654 
  417200    3.0201818   0.15797973      3.07803    7.7640174   0.01797833 
  417400    3.0400962   0.14482128    3.0500752    7.7527608  0.014590598 
  417600     3.060163   0.14578096    3.0082257     7.741956  0.014425107 
  417800    3.0289223   0.14305111    3.0639992    7.7481621  0.014143234 
  418000    3.0255704   0.13305162    3.0563948    7.7255329  0.006120454 
  418200    3.0667955   0.13549691    3.0136624    7.7470525  0.034286304 
  418400    3.0562575   0.14204528    3.0542909    7.7784302   0.02507456 
  418600    3.0337856   0.14990967    3.0683393    7.7666521  0.038185478 
  418800    3.0144905   0.16192566    3.1025169    7.7839176  0.026498365 
  419000    3.0649301   0.14334779    3.0279325    7.7663768  0.029929005 
  419200    3.0761031   0.15729163    3.0043289     7.773468  0.015921925 
  419400    3.1149581   0.15609036    2.9482399    7.7744312  0.023559015 
  419600    3.0671934   0.13822731    3.0431294    7.7798464 0.0018147099 
  419800    3.0729774   0.14430526    3.0192172    7.7706838   0.03471817 
  420000     3.008681   0.13837136    3.1063244    7.7554607  0.022969596 
  420200    3.0712517   0.14405396    2.9943286    7.7429567  0.030421037 
  420400    3.0841702   0.15314776    2.9329924    7.7100823  0.042791747 
  420600    3.0489747   0.14623732    2.9938019    7.7112145   0.01723695 
  420800    3.0551056   0.15096603     2.995941    7.7272741  0.032672249 
  421000    3.0428035   0.15592036    3.0007222    7.7185658  0.016371899 
  421200    3.0405872   0.15539833    3.0055769    7.7195756  0.013359631 
  421400    3.0546295   0.14404192     3.019954    7.7436491  0.012425984 
  421600    3.1021588   0.14037713    2.9578074     7.749096  0.019028544 
  421800    3.0933458   0.14087523    2.9926515    7.7712254  0.024378237 
  422000    3.0543153   0.16163852    3.0399272     7.780748  0.023012031 
  422200    3.0017595   0.15347907    3.0951474    7.7490144  0.028071714 
  422400    3.0295215   0.14587604    3.0531223    7.7410084  0.013067499 
  422600    3.0937884   0.14503644    2.9432108    7.7266096  0.047439556 
  422800     3.043821   0.14230437    3.0157919     7.721545  0.023979073 
  423000    3.0445043   0.15000578    3.0315269    7.7460057  0.037765865 
  423200    3.0670865   0.15067953    2.9936793    7.7426883  0.036514991 
  423400    3.0318823   0.14761367    3.0209693    7.7141326  0.026656528 
  423600    3.0309148   0.14139865    3.0287529    7.7142506  0.022945085 
  423800    3.0455463   0.13633672    2.9950724    7.6974444  0.034790612 
  424000    2.9748404   0.13946965    3.1083374    7.7078366  0.014184327 
  424200    3.0728369   0.14556621    2.9380818    7.6905988  0.030728208 
  424400    3.0793762   0.13388802    2.9178997    7.6685425  0.015147603 
  424600    3.0477423   0.13488109    2.9684732    7.6726818  0.026117362 
  424800    3.0759389   0.14226416    2.9361211    7.6899867  0.031153288 
  425000    3.0006755   0.13379051    3.0677102    7.7002635  0.021561839 
  425200    2.9873563   0.12792802    3.0577668    7.6644887   0.03289796 
  425400     3.027024   0.13848396    2.9821788    7.6589285  0.026509823 
  425600    3.0420124   0.15702794    2.9624741    7.6802391  0.028927769 
  425800    3.0200398   0.15928299     2.976718    7.6637956 0.0082088329 
  426000     3.013372    0.1595286    2.9843134    7.6616399  0.027418367 
  426200    3.0194123   0.14452297    2.9896766    7.6610534  0.025792547 
  426400    2.9757916   0.14817157    3.0602451    7.6698722  0.023361886 
  426600    2.9906219   0.14721648    3.0078118    7.6387183  0.019662755 
  426800    2.9811261   0.15669775    3.0224453    7.6485964  0.031139411 
  427000    3.0149151   0.14870729    2.9882848    7.6571035  0.021176701 
  427200    3.0205239   0.15039954    2.9778161    7.6567361  0.012097857 
  427400    2.9993021   0.15702121    2.9944044    7.6481293  0.031898053 
  427600    3.0178151   0.16082135     2.944011    7.6292916  0.024777959 
  427800     3.064278   0.14842359    2.8886926    7.6312351  0.024499234 
  428000    3.0126734   0.14126493    2.9822879    7.6403034  0.018927025 
  428200     2.959466   0.15970303    3.0424656    7.6391481  0.019302971 
  428400    3.0158785   0.15683616    2.9605027    7.6388947  0.034354936 
  428600    2.9752033   0.14383087    3.0585003    7.6629047  0.012424828 
  428800    3.0093658   0.14513915    3.0225956    7.6795265  0.023760104 
  429000    3.0694168   0.14634103    2.9709301    7.7190943  0.033650899 
  429200    3.0522826   0.14339743    3.0079836    7.7275157  0.022664169 
  429400    3.0399653   0.14832398    3.0064095    7.7124014  0.020964986 
  429600    3.0033738   0.14790489    3.0837935    7.7345065  0.020533454 
  429800     3.075106   0.14736672    2.9887791    7.7464986  0.042187125 
  430000    3.0369174   0.14769999    3.0350184    7.7358168  0.025974138 
  430200    3.0078332   0.14453137    3.0763485    7.7303738  0.033997351 
  430400    3.0108878   0.14008144    3.0592074    7.7133623  0.036010351 
  430600    2.9821383   0.14812343    3.1081801    7.7272743  0.034185914 
  430800    3.0050945   0.14440259    3.0666833    7.7164738  0.023374473 
  431000    3.0121146    0.1403777    3.0311063    7.6873969  0.028206331 
  431200    2.9777587   0.13158777    3.0943495     7.690342  0.016789591 
  431400    2.9806681   0.13488647    3.0661383    7.6697915  0.030373759 
  431600    3.0185271   0.13949343    3.0095849    7.6746051  0.022465719 
  431800    3.0874355   0.14782531    2.9004884    7.6771514  0.024032243 
  432000    3.0381785   0.14335001    2.9943273    7.6926664  0.018009684 
  432200     3.078009   0.14489388    2.9328685    7.6924674  0.018335365 
  432400    3.0915441    0.1436185    2.9218637    7.7004798  0.012646548 
  432600     3.030492   0.15838386    2.9729465    7.6747954  0.021916215 
  432800    3.0038591    0.1571101    2.9753208    7.6359666  0.027640535 
  433000    3.0112003   0.13891546    2.9857987    7.6392563   0.03256963 
  433200    3.0160733   0.14037403    2.9833793    7.6456013  0.024017325 
  433400    3.0103561   0.15110014    2.9985338    7.6629104  0.019177161 
  433600    3.0661221   0.16019042    2.9189523    7.6760262  0.038854317 
  433800    3.0293323   0.14646449    2.9757283    7.6639193  0.017900046 
  434000     3.079759   0.14073563    2.8874058    7.6454701  0.031981989 
  434200    3.0327767   0.14134857    2.9460124    7.6342515  0.023108334 
  434400    3.0106828   0.15540359    2.9540732     7.623243    0.0128493 
  434600    2.9893088   0.14618611     2.982277    7.6101843  0.014161004 
  434800    2.9814829   0.14750029    2.9853899    7.6028785  0.015025069 
  435000     2.982653   0.17050242    2.9890772    7.6313221  0.023865822 
  435200      2.98423   0.15000584    3.0055509    7.6296636  0.028433204 
  435400    3.0377706   0.13194715    2.9381499    7.6244746  0.024780235 
  435600    3.0031207   0.13995086    2.9505625    7.5929421  0.026501492 
  435800    2.9837061   0.14205292    2.9685933    7.5839676  0.031345509 
  436000    2.9861755   0.14353126    2.9543096    7.5748645  0.033034239 
  436200    2.9709298   0.14975087    2.9846742    7.5885916  0.028885835 
  436400    2.9833894   0.14839969    2.9581435    7.5793898  0.014083451 
  436600    3.0289056   0.14399813    2.9027676    7.5878524  0.019974681 
  436800    2.9084295   0.16478452    3.0618655     7.587113  0.010948599 
  437000    3.0014696   0.17026919    2.9378874    7.6081099   0.03335471 
  437200    2.9856367   0.16709297    2.9540184    7.5973273  0.022770177 
  437400    2.9774277   0.16412261    2.9958712    7.6239023  0.014592017 
  437600    2.9463775   0.15203914    3.0504716    7.6198673  0.014948386 
  437800    2.9529134   0.13889278    3.0360999    7.6021481 0.0082861394 
  438000    3.0527319    0.1449336    2.8897503    7.6114923  0.027019219 
  438200    2.9555311   0.13955177    3.0332803    7.6039122 0.0025716385 
  438400    2.9723304   0.14082794    2.9832935    7.5803878  0.027766167 
  438600    2.9782159    0.1586464    2.9630485    7.5867851  0.032887891 
  438800    2.9783511   0.15411779    2.9854392    7.6048498  0.024950466 
  439000    3.0123953   0.14598309    2.9374257    7.5997424  0.022103709 
  439200    2.9978034   0.14440416    2.9494869    7.5883478  0.033147755 
  439400    2.9666149   0.14514465    2.9715625    7.5644045  0.028560562 
  439600    2.9582809    0.1549702    2.9632229    7.5533957  0.018827625 
  439800    3.0051095     0.141547     2.947021    7.5939784 0.0091159644 
  440000    3.0333689   0.13537381    2.8975271    7.5806792 0.0096785136 
  440200    3.0344621   0.13281366    2.8788317    7.5610627  0.032125737 
  440400    3.0052432   0.13450288     2.945366    7.5854798  0.012916749 
  440600    3.0361547   0.14265465    2.8772966    7.5719061  0.037795929 
  440800    2.9942734   0.14844861    2.9156834    7.5532964  0.031450747 
  441000    3.0207756   0.14360391    2.9060314    7.5785332  0.035161355 
  441200    2.9564303   0.15459896    3.0163996    7.6034267   0.01249574 
  441400    3.0118451   0.15442809     2.922819    7.5927558  0.039989012 
  441600    2.9351357   0.15720082    3.0447823    7.6024853 0.0063403166 
  441800    3.0320495   0.14522388    2.9263609    7.6173849  0.021969669 
  442000    2.9863245   0.14840015    3.0098837    7.6355309  0.016870807 
  442200    2.9927379   0.15136571    2.9846059    7.6228339  0.020769808 
  442400    3.0714638   0.14832513    2.8930982    7.6463154  0.029935716 
  442600    3.0064269   0.15215402     2.940149    7.5996885  0.022124846 
  442800    3.0198194    0.1498971    2.9440257     7.621387  0.019044243 
  443000    3.0160909   0.15174339    2.9424982    7.6161159   0.02895997 
  443200    3.0164622   0.14770986    2.9597219    7.6298626 0.0040811687 
  443400    3.0137414   0.13822637    2.9662996    7.6228777  0.032270888 
  443600    2.9786649   0.13862144    3.0345845    7.6389693  0.021028516 
  443800    3.0079894   0.15606178    2.9540385    7.6198285  0.032658152 
  444000    3.0151274   0.15018374    2.9462048    7.6168182  0.028005538 
  444200    3.0226232   0.14473637    2.9413992    7.6178034  0.026368377 
  444400    2.9605361   0.15383758    3.0039621    7.5963834  0.026371162 
  444600     2.990135   0.15179417    2.9735145    7.6082685 0.0089294844 
  444800    3.0295848   0.14988607    2.9141189      7.60611  0.018406013 
  445000    3.0199174   0.15353858    2.9373207    7.6184704  0.025696173 
  445200    3.0177548    0.1556883    2.9274769    7.6075341  0.025435715 
  445400    2.9902845   0.14360815     2.989411    7.6162031  0.020749145 
  445600    2.9878904   0.14237729    3.0280359    7.6500079  0.026084512 
  445800    3.0090434   0.14160271    3.0018366    7.6547477  0.011281974 
  446000    2.9568221   0.14499907    3.0566519    7.6346665  0.026367933 
  446200    2.9715645   0.15019586    3.0018443    7.6071582  0.026508739 
  446400    2.9966951   0.14832449    2.9626182    7.6037378  0.037329382 
  446600    2.9733182   0.14031072     3.020318     7.618376  0.017851051 
  446800    3.0249429   0.14551313    2.9435166    7.6241753  0.020920224 
  447000      3.01655   0.13780082    2.9628051    7.6231685  0.023707402 
  447200    3.0208311   0.14260978     2.965187    7.6367778  0.013278321 
  447400    3.0259904   0.14404953    2.9407093    7.6214749  0.018530177 
  447600    2.9836383   0.13634159    2.9951216    7.6046829  0.023061499 
  447800    3.0143209   0.13824818    2.9516836    7.6091525  0.011388657 
  448000    2.9975002   0.14973724    2.9666345    7.6103738  0.027998519 
  448200    2.9374757   0.15235639    3.0536845    7.6100513  0.020360848 
  448400    3.0184169   0.15707634    2.9202642    7.6027021  0.035696829 
  448600    2.9614104   0.15377268    3.0081052    7.6017724  0.013809737 
  448800    3.0419598   0.13974181    2.9107979     7.611198  0.038007672 
  449000    2.9635486   0.13071386      2.99649    7.5703042  0.012018915 
  449200    3.0419446   0.13754622    2.8738903     7.572072  0.024101756 
  449400    2.9397812   0.14650604    3.0348495    7.5888225 0.0023268492 
  449600    2.9500778   0.14238884    3.0179249    7.5832178  0.028733259 
  449800    2.9970377   0.14831845    2.9633993    7.6050265   0.01429082 
  450000    3.0218774   0.15232134    2.9164089    7.5992799  0.031810731 
  450200    2.9750222   0.14675421    2.9652245    7.5722808  0.031482745 
  450400    2.9796235   0.16177149    2.9359306    7.5649027  0.045182168 
  450600    2.9708992   0.15365884    2.9573795    7.5651589  0.040510161 
  450800    2.9211471   0.14002544    3.0491848    7.5687401  0.017118002 
  451000    3.0287213   0.13081975    2.8796918     7.551322  0.027133708 
  451200    2.9589848   0.13626529    2.9918126    7.5643358  0.021136185 
  451400    3.0192423   0.13734953    2.9153738    7.5793224  0.017545382 
  451600    2.9911031   0.15213669    2.9316784    7.5682265  0.024871091 
  451800    2.9736076   0.14885846    2.9561752    7.5632149  0.019526387 
  452000    2.9227579   0.14516738    3.0110803    7.5381925  0.022372174 
  452200     3.020847   0.15358414    2.8431875    7.5257765  0.038041398 
  452400    2.9358066   0.15981681    2.9543386    7.5156634  0.023528449 
  452600    2.9095747   0.14919967    2.9861836    7.4975632  0.018886724 
  452800    2.9750621   0.13701907    2.8832173    7.4805982  0.030465059 
  453000    2.9249975   0.13471168    2.9712207    7.4912349   0.02822101 
  453200    2.8497232   0.13637442    3.0920081    7.5008301  0.024091451 
  453400    2.9758273    0.1431671    2.8996808    7.5043571  0.041697485 
  453600    2.9057001   0.14022789     3.023165    7.5197638   0.02422906 
  453800     2.971851   0.14900916    2.9068606    7.5114175  0.034666163 
  454000    3.0095219   0.13838695    2.8549118    7.5053244  0.025284605 
  454200    2.9960749   0.14321795    2.9068495    7.5419327   0.01864815 
  454400    2.9645675   0.14813865     2.951842    7.5446085 0.0061333291 
  454600    2.9965946   0.15378424    2.8863644    7.5327931  0.010880031 
  454800    2.9707027    0.1580596    2.9276475    7.5395332  0.015866424 
  455000    2.9599333    0.1481514    2.9185374    7.5043688  0.042045477 
  455200    2.9849169   0.14455187    2.8929768    7.5126654  0.036592951 
  455400    2.9613995   0.14471118    2.9319712    7.5165605  0.018934404 
  455600    2.9580113   0.15072661    2.9289822    7.5145072  0.017330477 
  455800    2.9592205    0.1415383    2.9263016    7.5044512   0.02233953 
  456000    2.9902979   0.13717795    2.8860496    7.5064317  0.024393444 
  456200    2.9426113   0.14210396    2.9429305    7.4967444  0.021242188 
  456400    2.9849894   0.13748159    2.8710255    7.4837524  0.018147615 
  456600    2.9589929   0.12959397    2.9253806    7.4912447  0.026980514 
  456800    2.9715661   0.14092404    2.8944637    7.4905082  0.029473353 
  457000    2.9473075   0.14028003    2.9405332    7.4995641  0.014834402 
  457200    3.0337159   0.12732685    2.8175346    7.4931601  0.023758244 
  457400    2.9832059   0.12527541    2.8896216    7.4874685  0.012864657 
  457600    2.9846226   0.12923733    2.8966432     7.500576  0.010603033 
  457800        3.001   0.14160922    2.8655034    7.5063619  0.019724987 
  458000    2.9590344   0.14723513    2.9376263    7.5211937  0.011857669 
  458200    2.9214588   0.14887289    2.9845027    7.5133727  0.035433915 
  458400    3.0025013    0.1658026    2.8523923    7.5196949  0.030332033 
  458600    2.9496114   0.15221284    2.9378889    7.5123066  0.026001544 
  458800    2.9914597   0.13678949    2.8840617    7.5057972  0.019960878 
  459000    2.9792908   0.13214322    2.8936199    7.4924648  0.013742651 
  459200    2.9760312   0.13013301    2.8982839    7.4902316  0.018057197 
  459400    3.0114003   0.13833982    2.8539764    7.5071581  0.020449725 
  459600    2.9689181   0.13779667    2.9239099     7.512857  0.024170341 
  459800    2.9748435   0.13733521    2.8831109    7.4804803  0.013039231 
  460000    2.9830752   0.15541562    2.8546551    7.4824462  0.034604592 
  460200    2.9690863   0.16099917    2.8483366    7.4607384  0.044356606 
  460400    2.9238403   0.14762209      2.93589    7.4670797  0.019616814 
  460600    2.9631005   0.15299327    2.8722025    7.4676242  0.032123712 
  460800    2.9165457   0.14357792     2.957452    7.4736611 0.0037282693 
  461000    2.9579553   0.14758822    2.8914204    7.4737232   0.02020885 
  461200    2.9450602   0.15168078    2.8903958    7.4574581  0.021147187 
  461400    2.9961137   0.16025335    2.8296662     7.481843  0.029518219 
  461600    2.9704464   0.14830224    2.8939393    7.4956833  0.028527328 
  461800    3.0160998   0.13576087    2.8365721    7.4942205  0.029639063 
  462000    2.9972437   0.14123101    2.8636298    7.4984784  0.012089124 
  462200    2.9970291   0.13151394    2.8896281     7.514438  0.019607501 
  462400    2.9776211   0.13797736    2.9144462     7.516622  0.014410676 
  462600    2.9555724   0.14664009    2.9436815    7.5214635  0.021852059 
  462800    2.9739064   0.14978114    2.9241309    7.5325412  0.022203866 
  463000    2.9898104   0.14148323    2.8820598    7.5060163  0.020808137 
  463200    3.0094903   0.13526831    2.8436607    7.4909073  0.025321162 
  463400    2.9687655   0.14623761    2.8796628     7.476822   0.02747059 
  463600    2.9757478    0.1448681    2.8941216    7.5003796  0.014734934 
  463800    2.9948274    0.1399995    2.8729742    7.5029686  0.022321198 
  464000    2.9683931   0.14335404    2.8898093    7.4835266  0.010094108 
  464200    2.9645972   0.13588685    2.9102423    7.4908016  0.012481643 
  464400    2.9198615   0.13109104    2.9903135    7.4990068 0.0048035104 
  464600    2.9724869   0.13849347    2.9173855      7.51238  0.024092107 
  464800    2.9307198   0.14302569    2.9832909    7.5201983  0.021861096 
  465000    3.0098738   0.14833813    2.8656898    7.5265812   0.03185305 
  465200     2.953445   0.14658879    2.9665798    7.5411209  0.028630619 
  465400    3.0187523   0.14921176    2.8697391    7.5448153   0.01595063 
  465600    2.9956198   0.13679064    2.9151783     7.543152  0.014219602 
  465800    3.0517064   0.14476482    2.8258034    7.5458391  0.016121466 
  466000    3.0567529   0.15175954    2.8328923    7.5674887  0.019531747 
  466200    3.0034036   0.13815567    2.9688859    7.6098945  0.024515723 
  466400    3.0565527   0.13500208     2.924324    7.6418627  0.025678234 
  466600    3.0221386   0.14705695    2.9520902    7.6300885  0.022651695 
  466800     2.991746    0.1487904     3.024064    7.6582296  0.031782689 
  467000    2.9714717   0.14590829    3.0409984    7.6418857  0.017882192 
  467200    2.9890751   0.15113882    3.0124222    7.6449318  0.035481001 
  467400    2.9824477   0.14409236    3.0258516    7.6413786  0.015447381 
  467600    3.0445248   0.13824958     2.932005    7.6347584 0.0082937933 
  467800    3.0559437   0.13639074    2.9111587    7.6291729  0.024779514 
  468000    3.0647154   0.13890159    2.8709094    7.6045856  0.017641299 
  468200    3.0614062   0.14336855    2.8679256    7.6011074  0.023485567 
  468400    3.0132137    0.1390334    2.9460291    7.6026231  0.018909491 
  468600    3.0549769   0.13717239    2.9013845     7.618731  0.022707936 
  468800    3.0483801    0.1276699    2.9270575    7.6250112  0.025668722 
  469000     3.009523   0.13352708    2.9549054    7.6004599  0.026378928 
  469200    3.0079499   0.14838737     2.946948    7.6050043  0.022872091 
  469400        3.024   0.15389103    2.8885998    7.5762228  0.028586281 
  469600    3.0377079   0.15782197    2.8342034     7.546309  0.031606904 
  469800    2.9844664   0.14786415    2.9245624    7.5468877  0.015220208 
  470000    2.9993867   0.13507753    2.8980528    7.5299608  0.025665219 
  470200    2.9679727   0.13930621    2.9435181    7.5325575  0.024463047 
  470400    2.9867186   0.14476771    2.9435243    7.5661298  0.037646913 
  470600    2.9785496   0.13806368    2.9610155    7.5646696  0.024725645 
  470800    2.9977178   0.15079324    2.9480326    7.5931542   0.02677693 
  471000    2.9953347   0.15155761      2.95566    7.5979732  0.012143602 
  471200    2.9880911   0.15006479    2.9815685    7.6115289  0.018199879 
  471400    2.9878713    0.1393701    2.9920753    7.6110115  0.020103524 
  471600    3.0013319   0.14338182    2.9834181    7.6265467  0.034506921 
  471800    3.0042019   0.15087979    2.9942832    7.6492127  0.013821341 
  472000    3.0213769   0.14568642    2.9593496    7.6348354  0.032318013 
  472200     2.981338   0.14832882    3.0023778    7.6204776 0.0016762705 
  472400     3.021792   0.14095827    2.9609848    7.6323647   0.02018742 
  472600    2.9796856   0.14042344    3.0129614    7.6206784  0.015859967 
  472800    3.0064455   0.14086635    3.0126145    7.6608943  0.014874826 
  473000    3.0448773   0.14432818    2.9533414    7.6627019  0.035941361 
  473200    3.0243474   0.13826114    2.9885074    7.6610214 0.0081981938 
  473400    3.0435051   0.13176193    2.9834702    7.6782071  0.038960317 
  473600    3.0412361    0.1417513    2.9712746    7.6725991  0.024996783 
  473800    3.0000627   0.14855377    3.0074233    7.6538211  0.029127371 
  474000     3.032099    0.1504226    2.9545789    7.6508759   0.01857269 
  474200    3.0384688   0.15090518     2.956741    7.6630705  0.033805746 
  474400    3.0232207   0.14159975    2.9862958    7.6604591  0.014056294 
  474600    3.0111972   0.14624868    2.9988746    7.6596607   0.01924954 
  474800     3.071472   0.13730521     2.930736    7.6729456  0.039081817 
  475000    2.9641326   0.15096799     3.065074    7.6600179  0.017838658 
  475200    3.0264219   0.16976297    2.9807549    7.6878809  0.025415376 
  475400    3.0612933   0.15902709    2.9243483    7.6730194  0.026655214 
  475600    3.0447082   0.15949902    2.9576461    7.6819239  0.032286087 
  475800    3.0467435   0.14845178    2.9848803    7.7011623  0.027118469 
  476000     2.979443   0.15572787    3.0583304    7.6809881  0.017384359 
  476200    3.0233356   0.14085099     2.998105     7.671692  0.024551625 
  476400    3.0868673   0.14030971     2.905407    7.6737024  0.013837006 
  476600    3.1024185   0.14407565     2.884886    7.6802627  0.030739167 
  476800    3.0234513   0.14005124    2.9883897    7.6613503  0.021433534 
  477000    3.0329722    0.1409309    2.9910613    7.6791757  0.015559272 
  477200    3.0386794   0.15062919    2.9515962    7.6579654  0.029273694 
  477400    3.0323415   0.14472234    2.9597628    7.6507232  0.020112025 
  477600    3.0619392   0.14513888     2.914914    7.6506653  0.011508438 
  477800    3.0406855   0.15036781    2.9514661    7.6605816  0.015481603 
  478000    2.9876669   0.14446828    3.0491613    7.6728892  0.021051445 
  478200    3.0406485   0.14586522    2.9384403    7.6429978   0.03477652 
  478400    3.0266982   0.13804729    2.9709971    7.6468217  0.025209906 
  478600    3.0733259   0.13470544    2.8693585    7.6117478  0.025489269 
  478800    3.0559981   0.13383892    2.8999388    7.6154829   0.02103322 
  479000    3.0526567   0.14464071    2.8876425    7.6089787  0.029028856 
  479200     3.053429   0.14391155    2.8679568    7.5897218  0.027858659 
  479400     3.051257   0.14360438    2.8894282    7.6076296  0.025570966 
  479600    2.9876603   0.15285816    2.9647881     7.596896 0.0080566388 
  479800    3.0315623   0.15029145    2.8756432    7.5710044  0.048395704 
  480000    2.9864313   0.14451515    2.9517037    7.5736261 0.0065600938 
  480200    3.0509235   0.15702783    2.8617805    7.5929053  0.020647654 
  480400    3.0358171   0.14529204    2.9015199    7.5982607  0.013824205 
  480600    3.0564115   0.14722401    2.8758874    7.6054364  0.030050256 
  480800    3.0429246   0.14678202    2.9069146    7.6158014  0.014165203 
  481000    3.0044404   0.14263894    2.9429874    7.5900336  0.032328585 
  481200      2.96689   0.14213111     3.002607    7.5928479  0.015813035 
  481400    2.9817053   0.13856206    2.9740604    7.5829442  0.021745401 
  481600    3.0566376   0.14426765    2.8627676    7.5896992  0.025464235 
  481800    3.0650621   0.13726875    2.8543571    7.5869202  0.024640984 
  482000    3.0481458   0.12973255    2.8798814    7.5795466  0.027826776 
  482200    2.9930457   0.12651033    2.9825542    7.5963883  0.020053132 
  482400    3.0429842   0.13690473    2.9148169    7.6139157  0.036567572 
  482600    2.9560093     0.148944    3.0358468    7.6165878  0.030645963 
  482800    2.9740772   0.14682628    2.9848147    7.5905262  0.020916506 
  483000    3.0805533   0.13946596    2.8327188    7.5907043  0.021779132 
  483200    2.9557396   0.13727519    3.0239764    7.5926442  0.013861275 
  483400    3.0537347   0.13629544    2.8923251    7.6069323  0.020350559 
  483600    3.0664338   0.14549728    2.8785762    7.6214244  0.016321245 
  483800    3.0273386    0.1504669    2.9430545    7.6322587  0.023634526 
  484000    2.9735307   0.14317742    3.0206312    7.6218745  0.011880713 
  484200    3.0216589   0.14430673    2.9210154    7.5955442  0.019634482 
  484400    3.0627555   0.14561835    2.8533213    7.5907758  0.019613837 
  484600    3.0589234   0.14873121    2.8471941    7.5820161  0.028454689 
  484800    3.0496138   0.14672696    2.8470959    7.5659564  0.021561429 
  485000    2.9744402   0.15375032    2.9236029    7.5367827  0.026175695 
  485200     2.981217    0.1549789     2.890244    7.5148124  0.018515401 
  485400    2.9723849   0.14578016     2.919941    7.5220692  0.031159482 
  485600    2.9969379   0.13194417    2.8719965    7.4970998   0.02917331 
  485800    2.9946791   0.13842482    2.8908841    7.5190815  0.025711235 
  486000    3.0483571   0.15048249    2.8019686    7.5227005  0.020239501 
  486200    3.0248106   0.14531129    2.8343299    7.5145886  0.024271654 
  486400    3.0023487    0.1462502    2.8580414     7.505563  0.023275802 
  486600    2.9726914    0.1425437    2.8861677     7.485519  0.016273646 
  486800    2.9609909   0.15031809    2.9251473    7.5147311  0.015195727 
  487000    2.9940909   0.15572356    2.8868277     7.531442  0.018577523 
  487200    2.9800827   0.15484021    2.9123453    7.5350745  0.018546264 
  487400    2.9917287   0.13959857    2.8891159    7.5140637  0.026349983 
  487600     2.987233    0.1402669    2.8903236    7.5091995  0.021927418 
  487800    2.9491132   0.13941226    2.9578019    7.5186721  0.022493763 
  488000     3.021204   0.14199795      2.86211     7.533648  0.027680892 
  488200    3.0014865   0.15357519    2.8643074    7.5178613  0.035916395 
  488400    2.9912002   0.15235648    2.8651983    7.5021117  0.025533018 
  488600    3.0084039   0.16207132    2.8060808    7.4785018  0.030937553 
  488800    2.9748004   0.16626957    2.8478146    7.4740537  0.017188589 
  489000    3.0452359   0.13872668     2.778981    7.4832775  0.032759626 
  489200    3.0143531   0.13630517    2.8440224    7.4995964  0.031244657 
  489400    2.9600024   0.14077538    2.9414022    7.5199611  0.031945215 
  489600     2.979331   0.15317489    2.9077188    7.5276557  0.024226286 
  489800    3.0017469   0.14287049    2.8854543    7.5286938  0.029754797 
  490000    2.9674742   0.14677301    2.9188926    7.5146513  0.018774919 
  490200    3.0528208   0.15139043    2.8028656    7.5311976  0.029978088 
  490400    3.0142711   0.16186385    2.8625278    7.5435376  0.025664163 
  490600    2.9611436   0.16136902    2.9331359    7.5339995  0.017890835 
  490800    3.0092932   0.14866291    2.8780005    7.5383463  0.027436411 
  491000    2.9370757   0.14010049    3.0015135    7.5450247  0.020900407 
  491200    2.9956832   0.14602249    2.9362145    7.5735151  0.029994841 
  491400    3.0337173   0.14936674     2.896036    7.5937034  0.012541776 
  491600    3.0359663   0.14546195    2.8964003    7.5935347  0.029607347 
  491800    3.0626624   0.14125827     2.855393    7.5883479  0.022353501 
  492000    3.0368105   0.15073905    2.8823237    7.5860009  0.024700481 
  492200    2.9952918   0.14812844    2.9224022    7.5612218  0.027654088 
  492400     2.972138   0.15428049    2.9540355    7.5642938  0.022678955 
  492600    3.0314339   0.14275653    2.9090569    7.5966907  0.028544823 
  492800    3.0065488   0.14699099     2.924144    7.5787033  0.020096591 
  493000    3.0625164   0.13408171    2.8598868    7.5854463  0.029454173 
  493200    2.9864286   0.14545263    2.9578479    7.5807036  0.016239568 
  493400    3.0319411    0.1537497    2.8796048    7.5789923  0.033386724 
  493600    3.0009489   0.14926983    2.9364074    7.5848499  0.018552377 
  493800    3.0681569   0.14638411    2.8418911    7.5882095  0.025482293 
  494000    3.0274205   0.13015746    2.9362756    7.6052933 0.0072265608 
  494200    2.9802282   0.14119034    2.9905235     7.599821  0.028801081 
  494400    2.9768113   0.14446763    2.9851005    7.5925524  0.030439967 
  494600    3.0217261   0.15024034    2.8988806    7.5794438   0.02932825 
  494800    3.0024931   0.15426453    2.8857819    7.5415341  0.023566831 
  495000    3.0330644   0.14887538    2.8800368     7.576234  0.030713374 
  495200    3.0303402    0.1407012    2.9160573     7.599996  0.019483015 
  495400    2.9855814   0.13577759    2.9796582    7.5915687  0.014987382 
  495600    3.0894876   0.14196298    2.8297573    7.6036345  0.044252898 
  495800    3.0464978   0.14591079    2.8926884     7.606061  0.038491618 
  496000    3.0220509   0.15259328    2.9335883    7.6169914   0.03490764 
  496200    3.0300559   0.14611702    2.9201405    7.6090689  0.033714596 
  496400    3.0143948   0.14082291     2.958814    7.6189683  0.015595115 
  496600    3.0344453   0.14173101    2.9447352    7.6358583  0.013064894 
  496800    3.0577918   0.13778406     2.912197    7.6343753  0.018715818 
  497000    3.0281845   0.14658393    2.9418526    7.6284421  0.041026251 
  497200    3.0203155   0.15233003    2.9150402    7.5955782  0.028188541 
  497400    3.0483829   0.14046429    2.8791093    7.5898616  0.041124805 
  497600    3.0556481   0.14268317    2.8767473    7.6006109  0.033190642 
  497800    3.0303508   0.15080985    2.9357565    7.6298197  0.020150872 
  498000    3.0457054   0.15237816    2.9271562    7.6458082  0.027474225 
  498200    3.0232358   0.15194688    2.9632091    7.6477422   0.03608279 
  498400    3.0411474   0.15781646    2.9476534    7.6649101  0.023101681 
  498600     3.059328   0.14888832    2.9222139    7.6577997  0.030847958 
  498800    3.0482705   0.13523777    2.9429049    7.6482623   0.02553662 
  499000    3.0636547   0.13982261    2.9093202    7.6423271   0.02803979 
  499200    3.0307406   0.15382497    2.9499557    7.6476185  0.017293009 
  499400    3.0944849   0.15468232    2.8844223    7.6785111  0.034824346 
  499600    3.0440023   0.14738722    2.9595558    7.6706635  0.015772363 
  499800    3.0300771    0.1426222     2.980757    7.6662223  0.020551359 
  500000    3.0732397   0.14689472    2.9010643    7.6555136  0.013195482 
  500200    3.0349811   0.16069549    2.9548513    7.6657423  0.017254764 
  500400    3.0377548   0.14748276    2.9538313    7.6556679  0.025608477 
  500600     3.050496   0.14583933    2.9347568    7.6540523  0.023294048 
  500800    3.0667992   0.14673139    2.9370913    7.6817214  0.021887394 
  501000    3.0847769   0.13854438    2.8999947    7.6633908  0.028062368 
  501077    3.0541214   0.13932483    2.9430537    7.6612699  0.030066759 
Loop time of 245.215 on 1 procs for 500000 steps with 2000 atoms

Performance: 176172.049 tau/day, 2039.028 timesteps/s
98.8% CPU use with 1 MPI tasks x 1 OpenMP threads

MPI task timing breakdown:
Section |  min time  |  avg time  |  max time  |%varavg| %total
---------------------------------------------------------------
Pair    | 82.792     | 82.792     | 82.792     |   0.0 | 33.76
Bond    | 94.975     | 94.975     | 94.975     |   0.0 | 38.73
Neigh   | 29.63      | 29.63      | 29.63      |   0.0 | 12.08
Comm    | 13.301     | 13.301     | 13.301     |   0.0 |  5.42
Output  | 3.7957     | 3.7957     | 3.7957     |   0.0 |  1.55
Modify  | 15.179     | 15.179     | 15.179     |   0.0 |  6.19
Other   |            | 5.542      |            |       |  2.26

Nlocal:    2000 ave 2000 max 2000 min
Histogram: 1 0 0 0 0 0 0 0 0 0
Nghost:    955 ave 955 max 955 min
Histogram: 1 0 0 0 0 0 0 0 0 0
Neighs:    1565 ave 1565 max 1565 min
Histogram: 1 0 0 0 0 0 0 0 0 0

Total # of neighbors = 1565
Ave neighs/atom = 0.7825
Ave special neighs/atom = 3.6
Neighbor list builds = 33529
Dangerous builds = 4


# ----------------- Run Section -----------------

# The lines above define the system you want to simulate.
# What you do next is up to you.
# Typically a user would minimize and equilibrate
# the system using commands similar to the following:
#  ----   examples   ----
#
#  -- minimize --
# minimize 1.0e-5 1.0e-7 1000 10000
# (Note: Some fixes, for example "shake", interfere with the minimize command,
#        You can use the "unfix" command to disable them before minimization.)
#  -- declare time step for normal MD --
# timestep 1.0
#  -- run at constant pressure (Nose-Hoover)--
# fix   fxnpt all npt temp 300.0 300.0 100.0 iso 1.0 1.0 1000.0 drag 1.0
#  -- ALTERNATELY, run at constant volume (Nose-Hoover) --
# fix   fxnvt all nvt temp 300.0 300.0 500.0 tchain 1
#  -- ALTERNATELY, run at constant volume using Langevin dynamics. --
#  -- (This is good for sparse CG polymers in implicit solvent.)   --
# fix fxLAN all langevin 300.0 300.0 5000 48279
# fix fxNVE all nve  #(<--needed by fix langevin)
#  -- Now, finally run the simulation --
# run   50000
#  ---- (end of examples) ----

Total wall time: 0:04:17
